BEGIN IONS
CHARGE=1+
PRECURSOR_MZ=273.112134992
COMPOUND_NAME=challenge_0
FORMULA=C16H16O4
SMILES=COC1=CC(/C=C/C2=CC=C(O)C(O)=C2)=CC(OC)=C1
INCHIKEY=UQRBFXIUUDJHSN-ONEGZZNKSA-N
ADDUCT=[M+H]+
IONMODE=positive
PARENT_MASS=272.104858992
57.06512451171875 0.0056496647737717 
57.071983337402344 0.05267849460446866 
58.061058044433594 0.005021223970619006 
58.06718063354492 0.014049851358892666 
68.57190704345703 0.004286581484152445 
70.06743621826172 0.051424951136378634 
70.2705078125 0.004716149074713919 
71.08782958984375 0.02515714724877523 
71.79259490966797 0.00459523036499463 
85.10321044921875 0.01007111620833698 
86.06281280517578 0.02412631756391748 
88.07860565185547 0.07790223847451637 
100.0787124633789 0.03714468994333384 
102.09427642822266 0.020014668940409847 
106.08946990966797 0.0520516197471607 
107.05162811279297 0.008717759925010596 
118.08890533447266 0.007034247354025126 
131.0518798828125 0.0053881546822361305 
135.04696655273438 0.008483625240407062 
137.06121826171875 0.008883495240930165 
149.0629425048828 0.01003398037553612 
150.0681610107422 0.005546849925769584 
164.08609008789062 0.00855110509332976 
212.23672485351562 0.0898040609115962 
213.243408203125 0.005543477890555755 
225.09869384765625 0.013207012517850255 
226.10012817382812 0.005975668917829673 
230.2504119873047 0.0055723199394496865 
241.0901641845703 0.006425914154879347 
242.0966796875 0.005626505962480121 
254.2470703125 0.16456132250038988 
255.25257873535156 0.027025190782619706 
256.261962890625 0.044355572646687415 
271.1022033691406 0.006665824697052881 
272.0536193847656 0.0052954635786357195 
272.10491943359375 0.02251322720080626 
272.2574157714844 0.1333024768160572 
273.11102294921875 0.09762258407402827 
273.26953125 0.02089973580278359 
274.1342468261719 0.02866620272401856 
274.1791076660156 0.02722732765551416 
274.2096252441406 0.045953788433963715 
274.27294921875 1.0 
275.2763977050781 0.06759690928428361 
END IONS

BEGIN IONS
CHARGE=1+
PRECURSOR_MZ=271.096484928
COMPOUND_NAME=challenge_1
FORMULA=C16H14O4
SMILES=O=C(C1=C(C=C(OC)C=C1O)O)/C=C/C2=CC=CC=C2
INCHIKEY=CUGDOWNTXKLQMD-BQYQJAHWSA-N
ADDUCT=[M+H]+
IONMODE=positive
PARENT_MASS=270.089208928
67.01998901367188 0.01699476971188472 
70.02362823486328 0.012895236378626844 
83.8349609375 0.01313169486247806 
91.05630493164062 0.014459505258489587 
99.04837799072266 0.015316663332479429 
103.04095458984375 0.01447435956566843 
103.05766296386719 0.16070051509655844 
104.69779205322266 0.012471911712608339 
131.0287628173828 0.03927059490200414 
131.05325317382812 0.5157656909901049 
132.05711364746094 0.04140961120578673 
165.05767822265625 0.024985551855304638 
166.9887237548828 0.024135442183967154 
167.00372314453125 0.048522367130202006 
167.039306640625 0.8428644871865975 
168.03712463378906 0.07424790890969028 
173.06451416015625 0.037122846203075995 
198.75164794921875 0.013249746273224398 
271.033935546875 0.044803545789441845 
271.09564208984375 1.0 
272.0986328125 0.16718897550754158 
END IONS

BEGIN IONS
CHARGE=1+
PRECURSOR_MZ=329.1383497399999
COMPOUND_NAME=challenge_2
FORMULA=C19H20O5
SMILES=C/C(C)=C\C(O[C@H](C(C)(C)O1)CC2=C1C=C(O3)C(C=CC3=O)=C2)=O
INCHIKEY=CUKSFECWKQBVED-INIZCTEOSA-N
ADDUCT=[M+H]+
IONMODE=positive
PARENT_MASS=328.1310737399999
51.59303665161133 0.013418230935309602 
55.05533218383789 0.02203245099174775 
68.75311279296875 0.0155188721843109 
83.0494613647461 0.14923937597389508 
101.81665802001953 0.01386679737431122 
104.6734848022461 0.015418864417542644 
155.0880889892578 0.01841723565066004 
169.74684143066406 0.015920175999810184 
173.09976196289062 0.015670614518235294 
175.04122924804688 0.02772560022538596 
186.06991577148438 0.023355446417134183 
194.61929321289062 0.0191046583941376 
205.28729248046875 0.018638952584314063 
211.08116149902344 0.04743001648410172 
213.05226135253906 0.08057139687184216 
214.060791015625 0.09779239914455044 
220.60377502441406 0.01795978769133359 
228.1278533935547 0.0188595908001549 
228.1775665283203 0.018200542723951798 
229.03797912597656 0.03982594751800844 
229.08534240722656 0.9968353422215862 
230.08847045898438 0.13670285479273725 
231.09669494628906 0.01782846938932394 
247.09596252441406 0.16880984874260402 
248.10585021972656 0.034596157247730824 
329.01190185546875 0.024961176784211274 
329.1372375488281 1.0 
330.1397399902344 0.20188434400615043 
330.3435974121094 0.02382031835729913 
331.1467590332031 0.018011607724355012 
END IONS

BEGIN IONS
CHARGE=1+
PRECURSOR_MZ=285.075749484
COMPOUND_NAME=challenge_4
FORMULA=C16H12O5
SMILES=O=C1C(C2=CC=C(OC)C(O)=C2)=COC3=CC(O)=CC=C13
INCHIKEY=ZZAJQOPSWWVMBI-UHFFFAOYSA-N
ADDUCT=[M+H]+
IONMODE=positive
PARENT_MASS=284.06847348400004
62.97829818725586 0.005984395739738616 
71.26561737060547 0.0061645590265233035 
134.04039001464844 0.02898840145457973 
137.02749633789062 0.0734296115361053 
138.0301971435547 0.0077123589697774145 
141.07373046875 0.007457015971316819 
169.0695343017578 0.006840056608441589 
183.0487518310547 0.008308771878583435 
186.07632446289062 0.007189032163530262 
197.06640625 0.01912493643086034 
213.05343627929688 0.038590785076420414 
214.0615997314453 0.04689317733777352 
225.0540313720703 0.07111478672185483 
226.06484985351562 0.012252292661519611 
229.09146118164062 0.008860469788214134 
242.06163024902344 0.009470645170316205 
253.0492401123047 0.07021368066791285 
254.06166076660156 0.015192745803945902 
269.0426025390625 0.028636957379714424 
270.0513000488281 0.20397776896372977 
271.05804443359375 0.0321008545263191 
284.07733154296875 0.005899577572022117 
284.92657470703125 0.00905459128724808 
284.97589111328125 0.030745199670913118 
285.0089416503906 0.0460425486168926 
285.074951171875 1.0 
286.0121765136719 0.008828265514797129 
286.0778503417969 0.17339711518826284 
287.09130859375 0.018777624350073043 
END IONS

BEGIN IONS
CHARGE=1+
PRECURSOR_MZ=295.18048932399995
COMPOUND_NAME=challenge_8
FORMULA=C19H22N2O
SMILES=O[C@@H](C1=CC=NC2=CC=CC=C12)[C@]3([H])[N@@]4C[C@H](C=C)[C@@H](CC4)C3
INCHIKEY=KMPWYEUPVWOPIM-QAMTZSDWSA-N
ADDUCT=[M+H]+
IONMODE=positive
PARENT_MASS=294.17321332399996
64.73780059814453 0.006420059657408455 
67.05579376220703 0.014606825811834213 
79.05715942382812 0.02989449010331184 
80.05126953125 0.006937059017242945 
81.06079864501953 0.014595379546026072 
81.07244873046875 0.06193104924089679 
85.279052734375 0.006004512400759698 
110.09858703613281 0.007535152925249947 
130.0689239501953 0.029363233407311735 
134.0987548828125 0.01224240249275344 
142.06666564941406 0.010438286018575077 
143.07672119140625 0.013128050225673803 
144.0829315185547 0.009139070185287623 
154.06741333007812 0.014004133489691135 
156.08538818359375 0.018109403492875455 
167.07623291015625 0.009349390415215247 
168.08673095703125 0.024705124895282 
194.1039276123047 0.00682692376548078 
223.128173828125 0.00971524878825648 
234.13134765625 0.008132863934813323 
242.3594970703125 0.008087380395023087 
277.1694641113281 0.07522176082854817 
278.1783447265625 0.01586102673815143 
295.0763854980469 0.032068687731849004 
295.10711669921875 0.038005973483095576 
295.1797790527344 1.0 
295.2741394042969 0.014747485407834767 
296.1828308105469 0.21194565489113049 
297.1915588378906 0.015166813695794019 
END IONS

BEGIN IONS
CHARGE=1+
PRECURSOR_MZ=291.086314168
COMPOUND_NAME=challenge_9
FORMULA=C15H14O6
SMILES=O[C@H]1[C@H](C2=CC=C(O)C(O)=C2)OC3=CC(O)=CC(O)=C3C1
INCHIKEY=PFTAWBLQPZVEMU-HIFRSBDPSA-N
ADDUCT=[M+H]+
IONMODE=positive
PARENT_MASS=290.079038168
52.35231399536133 0.011302326278532001 
62.080074310302734 0.010051909112188914 
86.02111053466797 0.013039862271802344 
95.05146789550781 0.0186111008557375 
105.07564544677734 0.010318044300197154 
111.04659271240234 0.011423995673883636 
116.17554473876953 0.01228478222680476 
119.03575897216797 0.010956789306812468 
119.05333709716797 0.03282012311525878 
123.0256576538086 0.05164148712110811 
123.0480728149414 0.5750577949719661 
124.05219268798828 0.05258969051648111 
137.06324768066406 0.012046212133314 
139.01649475097656 0.07366215470892026 
139.04327392578125 1.0 
140.0467529296875 0.06424850067399442 
143.0516357421875 0.018559355352132906 
147.04884338378906 0.1662240713931605 
148.05087280273438 0.01735820776881932 
151.04415893554688 0.03143100494011994 
153.0590057373047 0.011727783555406615 
161.0651397705078 0.0611372545518857 
163.04254150390625 0.01872701319482059 
165.0264434814453 0.014477364447892337 
165.0598907470703 0.18405249233521756 
166.0634307861328 0.014497326364339187 
169.0550994873047 0.019062979543468188 
179.07626342773438 0.039572239807886864 
189.0572052001953 0.013972057186952639 
192.37298583984375 0.012628197201676855 
207.0647430419922 0.07635130737508551 
213.95603942871094 0.011072748011449399 
249.0806427001953 0.014291121745706872 
273.0791320800781 0.025871591117932604 
291.0857238769531 0.24047142121228787 
292.10052490234375 0.03966904799326915 
END IONS

BEGIN IONS
CHARGE=1+
PRECURSOR_MZ=375.143829044
COMPOUND_NAME=challenge_10
FORMULA=C20H22O7
SMILES=O=C(OC1=CC(C)=C(C(O)=O)C(O)=C1C)C2=C(C)C=C(OC)C(C)=C2OC
INCHIKEY=MIJKZXWOOXIEEU-UHFFFAOYSA-N
ADDUCT=[M+H]+
IONMODE=positive
PARENT_MASS=374.136553044
57.06138610839844 0.0064437811423553384 
57.064537048339844 0.012623177470888055 
57.07164001464844 0.19853447427082307 
58.074642181396484 0.004496923239771832 
88.07695007324219 0.006482199510175103 
90.5140380859375 0.003216915630270449 
94.06137084960938 0.00967841273641539 
125.07133483886719 0.022966149712569793 
126.0550537109375 0.020099318340495772 
150.3038787841797 0.003633495221636587 
191.12205505371094 0.0061385877939793485 
193.08555603027344 0.1021288260966371 
194.0941162109375 0.011279024805036918 
208.1505889892578 0.012147259903633495 
209.12794494628906 0.05891454883598262 
218.12806701660156 0.029647585737360545 
219.11944580078125 0.010860583761226212 
260.1579284667969 0.004042567900177532 
275.1739196777344 0.04544495812446329 
276.18505859375 0.003893928858809871 
292.2008361816406 0.04456108249047468 
293.18560791015625 0.06284362324507253 
302.18548583984375 0.09997487774742173 
303.19183349609375 0.006617101664284302 
358.2580871582031 0.011577372767537232 
374.3598327636719 0.023024166709756995 
375.38079833984375 0.007763430333502625 
376.0386047363281 0.006439402474955074 
376.109375 0.02729036761127753 
376.15301513671875 0.027601626993459007 
376.2585144042969 1.0 
376.3922424316406 0.009815892286217069 
377.26141357421875 0.10813576564668904 
386.30755615234375 0.003770801607709061 
394.2685852050781 0.016784921214939522 
END IONS

BEGIN IONS
CHARGE=1+
PRECURSOR_MZ=377.14958312
COMPOUND_NAME=challenge_11
FORMULA=C22H20N2O4
SMILES=O=C1[C@](O)(CC)C2=C(CO1)C(N3CC4=C(CC)C5=CC=CC=C5N=C4C3=C2)=O
INCHIKEY=MYQKIWCVEPUPIL-QFIPXVFZSA-N
ADDUCT=[M+H]+
IONMODE=positive
PARENT_MASS=376.14230712
57.03474044799805 0.013606971800583267 
131.98887634277344 0.011144572398217548 
196.10508728027344 0.03089438854467602 
197.108154296875 0.019153786612634147 
209.110107421875 0.014235767690840884 
233.11228942871094 0.032448353542625485 
234.1194610595703 0.010751353037758999 
247.1276092529297 0.02015799939446412 
248.13096618652344 0.05760144224413471 
249.13941955566406 0.01927950991270592 
275.1251525878906 0.018483865588087362 
276.1325988769531 0.02855058301295001 
277.1419982910156 0.051630692168115604 
287.16546630859375 0.010400370765153212 
303.126220703125 0.010800255251776466 
305.1628723144531 0.047919553085312094 
306.17694091796875 0.011231477570859854 
318.1458740234375 0.027319846955512823 
333.1588134765625 0.5052372986464463 
334.1604919433594 0.11395664175693707 
348.1199951171875 0.017740283905408424 
376.2630615234375 0.01568047105001593 
376.99468994140625 0.024554636085008356 
377.148193359375 1.0 
377.2979431152344 0.010076703902241031 
378.15118408203125 0.24470164547389578 
379.165771484375 0.01702107814426595 
END IONS

BEGIN IONS
CHARGE=1+
PRECURSOR_MZ=592.384393656
COMPOUND_NAME=challenge_12
FORMULA=C33H53NO8
SMILES=C[C@]1([C@]2([H])C[C@@H](O[C@]3([H])O[C@@H]([C@@H](O)[C@H](O)[C@H]3O)CO)CC1)[C@]4([H])[C@](CC2=O)([H])[C@@]5([H])[C@@]([C@@]6([H])[C@@]([C@](O)([C@@]7([H])N(C[C@@H](C)CC7)C6)C)([H])CC5)([H])C4
INCHIKEY=DHQFYEJMFMYGCV-DLJWJMOOSA-N
ADDUCT=[M+H]+
IONMODE=positive
PARENT_MASS=591.377117656
63.81727981567383 0.04680948124338811 
63.82417678833008 0.018326945444276998 
65.81826782226562 0.04156977649034372 
65.92988586425781 0.013651238502067155 
96.08413696289062 0.0174295637466824 
138.10595703125 0.015812547142301563 
138.13180541992188 0.25350930273052696 
139.13392639160156 0.014101905022762288 
236.34344482421875 0.011484554474110719 
394.322509765625 0.017830658573940984 
412.3375549316406 0.053063560583977154 
413.3352355957031 0.015367040293339611 
574.0802612304688 0.023452559523221242 
574.3728637695312 1.0 
575.3753662109375 0.30745728931676863 
576.3884887695312 0.030728842906950077 
592.0724487304688 0.020764020310250982 
592.38330078125 0.9481433918656089 
593.3855590820312 0.3421771518413351 
594.4136352539062 0.04009873035841446 
END IONS

BEGIN IONS
CHARGE=1+
PRECURSOR_MZ=865.1974403120001
COMPOUND_NAME=challenge_14
FORMULA=C45H36O18
SMILES=O[C@H]1[C@@H](C2=CC=C(O)C(O)=C2)OC3=C4C(O[C@]5(C6=CC=C(O)C(O)=C6)OC7=CC(O)=CC(O)=C7[C@@]4([H])[C@H]5O)=CC(O)=C3[C@@H]1C8=C9C(C[C@@H](O)[C@@H](C%10=CC=C(O)C(O)=C%10)O9)=C(O)C=C8O
INCHIKEY=BYSRPHRKESMCPO-LQNPQWRQSA-N
ADDUCT=[M+H]+
IONMODE=positive
PARENT_MASS=864.1901643120001
70.67346954345703 0.007919238375572336 
108.01951599121094 0.010149406811628327 
111.0101547241211 0.013817550126896283 
121.86885070800781 0.0097145934756256 
123.04800415039062 0.08431226225428862 
127.0428237915039 0.04296518213941292 
135.0479278564453 0.02862533389746056 
137.0277099609375 0.049909492141338725 
139.0434112548828 0.07860716798583847 
147.04896545410156 0.027857768830310506 
149.02772521972656 0.03399652492977827 
151.0414276123047 0.02137357711813848 
153.02227783203125 0.021266034493943316 
155.03750610351562 0.012133249921729426 
161.0624542236328 0.010862106095484925 
163.0389862060547 0.06187184861602471 
165.05723571777344 0.009972436739218344 
175.04434204101562 0.0265521137860077 
185.06358337402344 0.011241234238690688 
189.05874633789062 0.015502593937163238 
203.04124450683594 0.039772583670965665 
213.0609130859375 0.02703468317421089 
217.05572509765625 0.01309985136214824 
225.06301879882812 0.010475218469156958 
229.057373046875 0.028932028406396342 
231.07241821289062 0.0357983450625222 
233.04823303222656 0.009360848978361097 
241.05612182617188 0.015219976350643297 
245.05445861816406 0.03752204478684714 
247.05978393554688 0.09673936758485657 
255.0707550048828 0.013726023168274525 
256.9858093261719 0.021577804288173952 
257.0431823730469 0.16858001793846952 
258.0587463378906 0.038414428662702435 
259.059326171875 0.09596102240959518 
269.05352783203125 0.03588656117358177 
271.06805419921875 0.03133899003792103 
275.06640625 0.02352168187290485 
283.07135009765625 0.04157798754712406 
286.9534912109375 0.032120425145054685 
286.9864501953125 0.04565844761730328 
287.0543518066406 1.0 
288.05780029296875 0.15324718687981892 
289.07281494140625 0.021455314479520093 
297.0535888671875 0.011086809839747701 
299.0622863769531 0.022155841020082733 
301.06964111328125 0.05706421495261812 
302.08123779296875 0.011218399064597342 
311.0639343261719 0.017003958624345235 
377.0756530761719 0.01586538948019468 
379.0845031738281 0.015659620232009872 
391.09271240234375 0.013306690535341151 
395.0829162597656 0.01329640135098521 
407.08984375 0.030418019960567155 
409.09271240234375 0.08638413954488111 
410.1092224121094 0.01985688117085385 
411.1070861816406 0.06983755436893957 
412.1239318847656 0.01552494396307477 
413.1001281738281 0.03724202476455066 
419.0945129394531 0.010813363142146754 
447.09112548828125 0.015536485003006995 
449.09881591796875 0.015404752832710927 
453.129638671875 0.027619099027153142 
533.1055297851562 0.2621951005393369 
534.10791015625 0.06926258446660868 
543.1101684570312 0.020109958142338964 
557.123046875 0.01594756722906276 
573.119140625 0.015144052104083044 
575.1171875 0.06418515065837843 
695.1318969726562 0.10449622859664835 
696.1578369140625 0.03289092709137678 
713.1474609375 0.18000189623632207 
714.1537475585938 0.07376427444564658 
739.1803588867188 0.015613650997889745 
865.192138671875 0.06399235046069672 
866.2318725585938 0.03132350861290498 
END IONS

BEGIN IONS
CHARGE=1+
PRECURSOR_MZ=217.047129048
COMPOUND_NAME=challenge_15
FORMULA=C10H9NaO4
SMILES=O=C(O[Na])/C=C/C1=CC=C(O)C(OC)=C1
INCHIKEY=NCTHNHPAQAVBEB-WGCWOXMQSA-M
ADDUCT=[M+H]+
IONMODE=positive
PARENT_MASS=216.039853048
54.13536071777344 0.001455626580522963 
54.26091384887695 0.01284803569537218 
54.387447357177734 0.0012929283379681225 
55.93608093261719 0.0010983513177826958 
57.07185363769531 0.0018404702627436746 
82.44798278808594 0.0012356751074514675 
91.05459594726562 0.008041504556131084 
104.7254409790039 0.0011758776818573072 
125.01009368896484 0.002045780397952282 
128.95433044433594 0.0058830137113972 
131.0511474609375 0.001906926782889772 
133.93345642089844 0.005137392101335123 
133.995849609375 0.001903982163715919 
134.01248168945312 0.006495294097375547 
135.92800903320312 0.0022442614580096476 
143.02838134765625 0.002251525181538976 
149.02737426757812 0.0058957295531424665 
151.04254150390625 0.0029470291336921037 
151.9442596435547 0.003991223567781041 
152.0338592529297 0.0015635364063185094 
153.93917846679688 0.0016771658701322547 
155.02783203125 0.0024765175110408448 
161.064208984375 0.005839427947793058 
163.0154266357422 0.001341306546757682 
164.03518676757812 0.009942174379779352 
167.0376434326172 0.002850272716112984 
171.04959106445312 0.0014992305970773668 
173.0352783203125 0.02116514915288788 
173.5426025390625 0.0040715658297031864 
175.54176330566406 0.002767088317727304 
176.97723388671875 0.01803825905988837 
177.02420043945312 0.002992058211311144 
182.04762268066406 0.0038806681099396124 
184.5489959716797 0.003738428192333917 
189.01771545410156 0.005386814103412163 
189.05433654785156 0.09518193786364744 
190.06407165527344 0.012376824376294256 
194.98202514648438 0.006157090505769295 
202.02987670898438 0.002700414283257265 
215.02992248535156 0.001734504661353257 
215.07513427734375 0.0029160723201845894 
215.12660217285156 0.001983282296259109 
216.04019165039062 0.02678254783343808 
216.1248779296875 0.0017937130490317077 
216.17149353027344 0.0032727418131380743 
216.89688110351562 0.0020799151261541708 
216.9273681640625 0.005969589736103226 
216.95521545410156 0.01104697830561416 
216.98348999023438 0.03360831159528643 
217.00381469726562 0.04606103706254249 
217.0486297607422 1.0 
217.8978271484375 0.002049745661261554 
217.94822692871094 0.0014995581044401202 
217.98516845703125 0.0027686489449746075 
218.00677490234375 0.006617479346421721 
218.05184936523438 0.12210336631130363 
218.2162628173828 0.0016368169630410368 
219.008544921875 0.002143026983299865 
219.0584259033203 0.012812094115229366 
237.0122833251953 0.002406002751620083 
255.02529907226562 0.0013381938483335105 
288.98590087890625 0.0017802153725836015 
311.9979248046875 0.0028286507655847096 
342.2132263183594 0.0015362298025933694 
END IONS

BEGIN IONS
CHARGE=1+
PRECURSOR_MZ=230.15394022799998
COMPOUND_NAME=challenge_16
FORMULA=C15H19NO
SMILES=O=C1C=C(CCCCC)N(C)C2=C1C=CC=C2
INCHIKEY=CHULATXGEVFYAJ-UHFFFAOYSA-N
ADDUCT=[M+H]+
IONMODE=positive
PARENT_MASS=229.146664228
57.53688049316406 0.012815717038749275 
62.67544174194336 0.0015149156192742277 
158.062255859375 0.0026020244619902946 
159.0704803466797 0.0030910350338782307 
160.07952880859375 0.005844886972966948 
172.0764923095703 0.0017795215911683513 
173.03533935546875 0.002962578529554684 
173.0519256591797 0.006157122161513459 
173.0829315185547 0.1272556431134939 
174.08653259277344 0.018484574778496823 
186.09634399414062 0.0026465917273242037 
205.07568359375 0.0020012122201696525 
229.19329833984375 0.0015878589284798335 
230.0210418701172 0.005039804571981553 
230.05027770996094 0.010069494095935902 
230.0816650390625 0.030328409534537484 
230.1046600341797 0.038431284158126695 
230.1531982421875 1.0 
231.082763671875 0.006846984497599295 
231.1565704345703 0.16585742503477158 
232.16604614257812 0.0037141294322049424 
END IONS

BEGIN IONS
CHARGE=1+
PRECURSOR_MZ=409.2009499959999
COMPOUND_NAME=challenge_17
FORMULA=C25H28O5
SMILES=O=C1C[C@@H](C2=CC=CC=C2O)OC3=C(C[C@H](C(C)=C)C/C=C(C)\C)C(O)=CC(O)=C13
INCHIKEY=OGBMVWVBHWHRGD-MWTRTKDXSA-N
ADDUCT=[M+H]+
IONMODE=positive
PARENT_MASS=408.1936739959999
55.0198974609375 0.045454959057255544 
63.53120422363281 0.010874550543931416 
103.05582427978516 0.016008592988994076 
107.05280303955078 0.03238822604785315 
117.0892105102539 0.011254289878083723 
121.04948425292969 0.012831735327447242 
121.06783294677734 0.03248353149017648 
123.00959014892578 0.02561217992119622 
147.0469970703125 0.023863390170082686 
159.05641174316406 0.012421781546544533 
164.97349548339844 0.024932800107248135 
164.98854064941406 0.05003435596292817 
165.0178985595703 1.0 
166.02154541015625 0.06939578426498386 
179.03668212890625 0.026462204679300688 
183.03497314453125 0.05501754350785618 
197.06439208984375 0.013253670363956313 
239.07772827148438 0.021391375027615747 
252.5297393798828 0.012513492950448395 
267.0642395019531 0.17481829082971068 
268.0769958496094 0.04132518058613899 
285.07427978515625 0.15161025369249986 
286.08477783203125 0.026536622415986165 
289.142822265625 0.20474526186329672 
290.1551208496094 0.023575161819338847 
294.6558532714844 0.013024665001116537 
296.3482360839844 0.011448499029430348 
368.480712890625 0.011972356767235067 
409.08453369140625 0.016614483596653053 
409.20013427734375 0.7920733798933992 
410.2036437988281 0.20583515697379706 
END IONS

BEGIN IONS
CHARGE=1+
PRECURSOR_MZ=279.170318564
COMPOUND_NAME=challenge_21
FORMULA=C15H22N2O3
SMILES=O=C(OCC)NCCCC(NCCC1=CC=CC=C1)=O
INCHIKEY=HTOYBIILVCHURC-UHFFFAOYSA-N
ADDUCT=[M+H]+
IONMODE=positive
PARENT_MASS=278.163042564
60.46539306640625 0.01690614756415291 
69.03568267822266 0.05130387886131526 
79.12155151367188 0.018125651424638758 
86.04971313476562 0.040341888507509124 
86.06266784667969 0.6211405426346782 
87.0655288696289 0.021393482400553263 
105.05604553222656 0.060207456380814095 
105.07298278808594 0.8094542290171264 
106.0765151977539 0.05664104886698892 
112.04285430908203 0.0994075104632698 
122.09999084472656 0.34812948842137353 
123.10249328613281 0.027703689276341707 
130.05368041992188 0.10252072416169318 
158.08621215820312 0.07670934024269956 
182.67236328125 0.019428850439936404 
189.14266967773438 0.050170457496170745 
190.08717346191406 0.040945123979584025 
190.12210083007812 0.7028512327269899 
191.12725830078125 0.10373256973235068 
233.0804443359375 0.05447119270968851 
233.1280517578125 1.0 
234.13063049316406 0.14270019333615322 
279.16900634765625 0.3316021801431482 
280.1798400878906 0.044712745455653756 
END IONS

BEGIN IONS
CHARGE=1+
PRECURSOR_MZ=347.185299932
COMPOUND_NAME=challenge_23
FORMULA=C20H26O5
SMILES=O=C1O[C@]2([H])[C@H](O)C3=C(C(O)=C(O)C(C(C)C)=C3)[C@@]41CCCC(C)(C)[C@]24[H]
INCHIKEY=LCAZOMIGFDQMNC-PYQAKABTSA-N
ADDUCT=[M+H]+
IONMODE=positive
PARENT_MASS=346.17802393200003
53.03998565673828 0.008786051244531867 
57.06145095825195 0.013891216908203557 
57.06467819213867 0.0434190349520422 
57.071773529052734 0.5112078641995819 
58.075016021728516 0.022177968929227198 
58.76032257080078 0.010616133178806818 
70.74402618408203 0.011263156379194747 
77.04036712646484 0.011260494920330691 
81.16136169433594 0.008193123310692265 
86.79082489013672 0.009152405146002579 
91.05453491210938 0.08401103558801687 
95.03723907470703 0.02854814346145474 
95.05189514160156 0.4063943209523126 
96.05574798583984 0.025762740904154573 
104.5239486694336 0.009148933354691087 
110.55059814453125 0.008726739617733226 
141.00967407226562 0.093303482040654 
159.0235137939453 0.014255427889234146 
217.0443115234375 0.014233101619554715 
234.9781494140625 0.030391082298850212 
235.00279235839844 0.035189702543066075 
235.0516357421875 1.0 
236.0548858642578 0.09659255949277451 
291.1137390136719 0.5216259144614059 
292.1166687011719 0.09725651665884914 
332.15826416015625 0.009613331287099349 
347.08392333984375 0.028977622136676668 
347.1764221191406 0.9662513138784821 
348.1800842285156 0.19812732419205642 
349.19476318359375 0.023799139352598395 
END IONS

BEGIN IONS
CHARGE=1+
PRECURSOR_MZ=427.1598730319999
COMPOUND_NAME=challenge_24
FORMULA=C20H26O10
SMILES=O[C@@]1([C@H]2O)[C@@]34[C@@]([C@@H](O)[C@H](O)[C@]1(OC4)CO)([H])[C@]([C@@](C(C)=CC5=O)([H])C[C@@]3([H])OC2=O)([C@@H]5O)C
INCHIKEY=QXKKRGMRXXMDDP-JVDXBALSSA-N
ADDUCT=[M+H]+
IONMODE=positive
PARENT_MASS=426.1525970319999
54.521663665771484 0.05636491599477501 
69.03495025634766 0.12267112967884329 
89.44173431396484 0.04713052058465835 
95.05261993408203 0.07761041169316697 
107.8554458618164 0.05167499774784919 
124.71437072753906 0.05134452276924463 
134.31503295898438 0.07213148056393856 
192.09793090820312 0.0795809422998964 
195.12107849121094 0.08393123620557633 
199.115966796875 0.07054357348768074 
211.1172332763672 0.13041207603261115 
223.1182403564453 0.1768558736092969 
227.1114044189453 0.08659608238367641 
235.11581420898438 0.07491686185306969 
239.10850524902344 0.06405663596234404 
241.1272735595703 0.09775176793838115 
245.12242126464844 0.07329219404531327 
251.11300659179688 0.1123885072744471 
253.1300506591797 0.11417630962569254 
263.1098937988281 0.06339067496959597 
267.11444091796875 0.05579366920408991 
269.1250305175781 0.17374833340840504 
279.04833984375 0.060608502995360566 
279.1131591796875 0.06298134093058871 
281.12274169921875 0.09092669249132922 
283.1417541503906 0.0702119330210351 
287.13134765625 0.09565026350164407 
289.14874267578125 0.0639052126030359 
299.1396789550781 0.0767588565830368 
309.1239929199219 0.055897983198955004 
315.1273193359375 0.0659440565740282 
325.11590576171875 0.06808924147560921 
327.1319580078125 0.1373563465609657 
329.1474609375 0.1061102540426107 
345.1435241699219 0.23467307778928878 
355.1297302246094 0.0763871616143417 
363.151123046875 0.07945055402909779 
373.1286926269531 0.3184799333363362 
391.1374816894531 0.6615032656186658 
392.1509094238281 0.1833796450610333 
409.1480407714844 1.0 
410.16253662109375 0.11506990676095671 
427.1600036621094 0.6315329039232467 
428.1764831542969 0.1202289198684744 
END IONS

BEGIN IONS
CHARGE=1+
PRECURSOR_MZ=517.185693856
COMPOUND_NAME=challenge_26
FORMULA=C30H28O8
SMILES=O=C(C1=C2C(C=CC(C)(C)O2)=C(O)C(CC3=C(O)C(C)=C(O)C(C(C)=O)=C3O)=C1O)/C=C/C4=CC=CC=C4
INCHIKEY=DEZFNHCVIZBHBI-ZHACJKMWSA-N
ADDUCT=[M+H]+
IONMODE=positive
PARENT_MASS=516.1784178559999
55.544410705566406 0.014665609625428537 
77.03501892089844 0.014978935607064052 
91.055908203125 0.01513910155468081 
100.85291290283203 0.013213905630250773 
109.06729888916016 0.028033769774034344 
120.11952209472656 0.013529385176721713 
121.0679702758789 0.018055720233975097 
135.0842742919922 0.12050843859157111 
177.0240478515625 0.03418079842183208 
177.06004333496094 0.07581647965024667 
189.02349853515625 0.13394140698134213 
189.06019592285156 0.06944441207522192 
190.0267333984375 0.023634104588324344 
195.0656280517578 0.13894427262861134 
196.07351684570312 0.018236188764875923 
219.06471252441406 0.4454199233341439 
220.07513427734375 0.04140115811899082 
231.06471252441406 0.8969508321868155 
232.07020568847656 0.12053855006081529 
237.08119201660156 0.019380005819338825 
249.07464599609375 0.08628607808803031 
323.1268005371094 0.48464268133173716 
324.13055419921875 0.09445691954280157 
325.14111328125 0.017206612812049014 
335.0414123535156 0.03844842145659948 
335.1267395019531 1.0 
336.130126953125 0.20673944044749284 
END IONS

BEGIN IONS
CHARGE=1+
PRECURSOR_MZ=461.2169939839998
COMPOUND_NAME=challenge_28
FORMULA=C25H32O8
SMILES=CCCC(C1=C(C(C)(C)C(O)=C(CC2=C(O)C(C(CCC)=O)=C(OC)C(C)=C2O)C1=O)O)=O
INCHIKEY=DCEHSZHMKGBNHS-UHFFFAOYSA-N
ADDUCT=[M+H]+
IONMODE=positive
PARENT_MASS=460.20971798399984
51.24495315551758 0.025696984649630168 
57.07128143310547 0.020998619439043676 
71.0508804321289 0.027886863455894497 
90.97805786132812 0.04372998375184245 
110.06886291503906 0.02666364829071081 
125.9636001586914 0.022005512862818367 
128.22520446777344 0.019682745041725833 
137.0592803955078 0.1938375753443812 
149.06153869628906 0.0485271248646251 
151.07626342773438 0.02900351426464505 
153.0587921142578 0.0637072104067313 
165.05862426757812 0.14844012553308522 
165.09507751464844 0.038400965692263166 
177.05921936035156 0.03585963982130957 
177.09486389160156 0.02240529112877473 
189.0936737060547 0.046395302923489395 
191.11001586914062 0.04494383771796104 
192.077392578125 0.22511044551035783 
204.08468627929688 0.07934264717310328 
207.10122680664062 0.3449976224218236 
208.10777282714844 0.0432281355350134 
219.10104370117188 0.4966010330009879 
220.1100616455078 0.05822705830384549 
225.1114959716797 1.0 
226.11366271972656 0.10575171878428742 
235.05711364746094 0.06736641319354957 
237.03271484375 0.026354530642868995 
237.11190795898438 0.7445624704704283 
238.1167755126953 0.113124920847754 
291.1181335449219 0.04289720149984553 
347.185791015625 0.052592377088842825 
348.18902587890625 0.0290376273772771 
403.24713134765625 0.04014278257019053 
443.216796875 0.04213193238981532 
461.2159423828125 0.7350773216819537 
462.2209777832031 0.18375535398785972 
463.2389831542969 0.04284774521159812 
END IONS

BEGIN IONS
CHARGE=1+
PRECURSOR_MZ=301.10704961199997
COMPOUND_NAME=challenge_29
FORMULA=C17H16O5
SMILES=O=C(C1=C(OC)C=C(OC)C=C1O)/C=C/C2=CC=C(O)C=C2
INCHIKEY=UXUFMIJZNYXWDX-VMPITWQZSA-N
ADDUCT=[M+H]+
IONMODE=positive
PARENT_MASS=300.099773612
57.070335388183594 0.17549864072427124 
57.07670593261719 0.00943205659173186 
57.43632507324219 0.00428053362660028 
57.53623962402344 0.005717891786616617 
58.06523132324219 0.005511974794549056 
60.04465103149414 0.004214099725951688 
62.573402404785156 0.0033416162928861484 
70.06553649902344 0.03151313121762643 
71.08562469482422 0.01507950166875586 
75.2719497680664 0.007432588769623965 
75.28065490722656 0.005587877766801116 
75.57174682617188 0.006423152001532292 
85.10079193115234 0.006170159608895093 
88.07588958740234 0.06859187271057808 
102.09168243408203 0.02073747927457857 
106.08642578125 0.03733163184243513 
107.04899597167969 0.0069910845962722025 
111.04460144042969 0.003881626758553836 
119.04924774169922 0.023116862134642865 
123.04363250732422 0.006355038577185807 
125.05986785888672 0.004701305144120267 
136.03765869140625 0.006481324214310361 
147.043701171875 0.11365958793817026 
148.04698181152344 0.007938109030094141 
151.03921508789062 0.0052102678379961674 
153.05517578125 0.004541956382918062 
166.02452087402344 0.01674667052988847 
174.08938598632812 0.004300977287082543 
180.97344970703125 0.00683360307247976 
181.04904174804688 1.0 
181.0750732421875 0.023019209882602247 
182.0525665283203 0.08959851288704511 
183.0544891357422 0.010913177176644437 
207.879638671875 0.005017211710118977 
218.12930297851562 0.019267588767187115 
219.11123657226562 0.03002947554570851 
228.11245727539062 0.005506072283471129 
235.8683319091797 0.0032463578666194243 
240.27037048339844 0.020603093010232828 
245.12721252441406 0.008296347513046903 
253.87864685058594 0.005976665609276216 
258.2794494628906 0.006619664270104512 
259.0923767089844 0.005885038472401196 
259.1474609375 0.005824571430938656 
260.1506042480469 0.03537558338223282 
275.1746520996094 0.15300617303204753 
275.2295837402344 0.0024502228927083558 
276.1764221191406 0.015810578420803304 
276.8955383300781 0.006703457691141753 
284.29461669921875 0.031010871768978685 
299.0899353027344 0.004448945190581277 
300.2864685058594 0.008459193156054015 
301.10626220703125 0.6076254929750446 
301.1676940917969 0.013154742380940313 
302.10833740234375 0.10570993280138491 
302.18463134765625 0.3991497825353782 
302.303955078125 0.8413566829188411 
303.1127624511719 0.0084922734142433 
303.1874694824219 0.05173164490395881 
303.307373046875 0.06598147481172886 
END IONS

BEGIN IONS
CHARGE=1+
PRECURSOR_MZ=836.3851815040001
COMPOUND_NAME=challenge_31
FORMULA=C45H57NO14
SMILES=CC1=C([C@@H](OC)C([C@@]2(C)[C@@]3([H])[C@](OC(C)=O)(CO4)[C@H]4C[C@@H]2OC)=O)C(C)(C)[C@@]([C@H]3OC(C5=CC=CC=C5)=O)(O)C[C@@H]1OC([C@H](O)[C@H](C6=CC=CC=C6)NC(OC(C)(C)C)=O)=O
INCHIKEY=BMQGVNUXMIRLCK-OAGWZNDDSA-N
ADDUCT=[M+H]+
IONMODE=positive
PARENT_MASS=835.3779055040001
59.05072021484375 0.020737833076310722 
60.60707473754883 0.018429524657626345 
62.02577590942383 0.038680715766902726 
67.0560302734375 0.030020401133034984 
69.03523254394531 0.021921205108971192 
73.05888366699219 0.021108364136739315 
73.06704711914062 0.05881292492552006 
75.04570007324219 0.02217327947680029 
77.04081726074219 0.04844532084500305 
79.05699157714844 0.06712544447282 
81.03570556640625 0.026106480577837987 
81.07144927978516 0.03105877581585612 
83.05120849609375 0.02958575146377046 
85.0666732788086 0.020373827866014778 
86.13436889648438 0.018376314091163415 
91.04354095458984 0.031146026404629153 
91.05724334716797 0.260679293863085 
93.07281494140625 0.11942964652849633 
95.05227661132812 0.1385376107210989 
95.0876693725586 0.027972568461090468 
97.06766510009766 0.030804523414607272 
99.04612731933594 0.03165356869235802 
103.05573272705078 0.023549447342720027 
105.01948547363281 0.08477874084499952 
105.03682708740234 1.0 
105.07312774658203 0.27296668040074407 
106.04014587402344 0.06565188936259038 
107.07393646240234 0.03145356912356463 
107.08912658691406 0.09444670119018306 
109.06690216064453 0.03011548384198407 
113.06219482421875 0.029075101628359384 
114.12162017822266 0.02028939332045111 
117.07340240478516 0.05478417360835985 
118.0681381225586 0.05928838522098283 
119.05308532714844 0.10827063530462812 
119.08927154541016 0.07866468753096548 
121.06881713867188 0.1430375487681483 
121.08769226074219 0.02622005457051733 
121.10523223876953 0.05880392678745262 
123.084228515625 0.08317154468418163 
129.0728302001953 0.027565204710501078 
131.06979370117188 0.022627157441103777 
131.08975219726562 0.07619849368968717 
133.06878662109375 0.3231015336699326 
133.10516357421875 0.12873417229713974 
135.08453369140625 0.10334217468232833 
136.0811004638672 0.08334004526965462 
137.10035705566406 0.09457966023030658 
143.08773803710938 0.0461696334268553 
145.0692901611328 0.07633848733774971 
145.10543823242188 0.0673486378974999 
147.0492706298828 0.019783686685888507 
147.08316040039062 0.03737537248771545 
149.0637969970703 0.07010519219406902 
149.0963134765625 0.09941479542062093 
151.07969665527344 0.0858681865614546 
155.09033203125 0.04516959433225543 
157.1055450439453 0.06076978345155728 
159.08509826660156 0.06259116389881886 
161.06752014160156 0.044728902820284876 
161.10165405273438 0.12131060938999048 
163.08091735839844 0.09709196677913826 
163.1170196533203 0.14642871380218458 
165.09625244140625 0.10177028356323099 
165.13267517089844 0.14249618646148507 
167.08926391601562 0.03342312184438158 
168.09664916992188 0.03894504707280229 
169.10418701171875 0.04279777368903948 
171.08631896972656 0.02679133733628009 
171.12026977539062 0.02795882650023382 
173.09893798828125 0.040260235503053556 
175.0809783935547 0.04643127794152874 
175.1166229248047 0.056007683881901485 
176.1240234375 0.027194609024080864 
177.06040954589844 0.12357832718585234 
177.09616088867188 0.0213873559175892 
177.1327362060547 0.04367663492428628 
179.08871459960938 0.0332844757169954 
180.06686401367188 0.029662953398356944 
180.09896850585938 0.038650591804680653 
181.09683227539062 0.04552199573950263 
182.08700561523438 0.08590233108536817 
183.0867462158203 0.030753215877344423 
185.1014862060547 0.03399720690314272 
187.11636352539062 0.024477531583244613 
189.09584045410156 0.029452245165249816 
191.07662963867188 0.03043385622708995 
193.10643005371094 0.07249251482514747 
194.1132049560547 0.06810881556166598 
195.12322998046875 0.08224219542424659 
197.0996551513672 0.052180714160878085 
197.13778686523438 0.0387553024113602 
199.11642456054688 0.061447762354465564 
201.12986755371094 0.021700999605137942 
206.1138916015625 0.03523511089754161 
207.11976623535156 0.051245298307857234 
209.09579467773438 0.05723134815780613 
209.13917541503906 0.06218541167295671 
210.10658264160156 0.0275269598736723 
211.11679077148438 0.08139357090295193 
211.15658569335938 0.02549222840275261 
220.12844848632812 0.044359110146186084 
221.0943145751953 0.029047702957954186 
221.1395721435547 0.05763926741691924 
223.1171112060547 0.05676656352615075 
224.12063598632812 0.02859767505272601 
225.1295166015625 0.04296258096784237 
226.07720947265625 0.05771670860517684 
227.1027069091797 0.05535663889226716 
227.15213012695312 0.030567923534218708 
235.15650939941406 0.08349914071081507 
237.12564086914062 0.10615634786300161 
238.1388702392578 0.044720297938251566 
239.14988708496094 0.035630434963394075 
245.14202880859375 0.02297881908700007 
247.1552734375 0.027419952981758554 
248.12548828125 0.0295032804483352 
253.16659545898438 0.05662265931808458 
255.1431427001953 0.04185256493575638 
263.1427307128906 0.11766593446609845 
264.1529846191406 0.030136934171117923 
265.17138671875 0.028381934242399015 
281.1640319824219 0.09101414252100284 
283.1376647949219 0.0411972161300843 
291.1486511230469 0.07623987632466232 
295.17913818359375 0.07963849947313592 
309.14874267578125 0.13168592458882689 
311.1734313964844 0.06230468100302531 
313.19207763671875 0.05504950867966118 
323.1622619628906 0.12802402340061506 
327.20037841796875 0.08394127049485448 
341.17303466796875 0.20963477063592065 
342.1908264160156 0.0533707784212241 
355.2033996582031 0.08213981135326541 
359.19305419921875 0.0397467833746441 
371.1942138671875 0.035511921894929556 
373.20001220703125 0.17758060879686138 
374.2139892578125 0.028361443677991795 
383.19451904296875 0.04141217867846964 
401.20098876953125 0.09803391123233395 
402.2057189941406 0.03132138284529838 
419.2148132324219 0.038172983726262294 
433.2209167480469 0.2590100622503952 
434.2384948730469 0.060740825507226585 
445.2225036621094 0.027689154612388373 
463.2266540527344 0.06062535673547375 
523.2338256835938 0.22611850156228797 
524.2557983398438 0.05788218414423351 
537.27099609375 0.028526976967934596 
555.2802734375 0.08368215601900196 
836.4159545898438 0.09108907567077709 
837.4082641601562 0.030707061919158087 
END IONS

BEGIN IONS
CHARGE=1+
PRECURSOR_MZ=457.2333127439998
COMPOUND_NAME=challenge_34
FORMULA=C25H32N2O6
SMILES=CC[C@@]1(C=CCN2CC3)[C@@]2([H])[C@@]3(C4=CC=C(OC)C=C4N5C)[C@]5([H])[C@](C(OC)=O)(O)[C@@H]1OC(C)=O
INCHIKEY=CXBGOBGJHGGWIE-ACSXSLCXSA-N
ADDUCT=[M+H]+
IONMODE=positive
PARENT_MASS=456.2260367439998
50.80096435546875 0.016598280606790517 
59.59056854248047 0.007203820141023679 
69.81922912597656 0.010235650502424235 
70.21904754638672 0.006335963855647157 
77.76837921142578 0.007167143164984341 
91.054931640625 0.008246447203314081 
91.12385559082031 0.006337106193608272 
93.07014465332031 0.010441358841025232 
119.03699493408203 0.015749831504067745 
137.8173065185547 0.006104793120126024 
145.08636474609375 0.008417965977545336 
150.97280883789062 0.006526658919042106 
157.08724975585938 0.018595219054415524 
161.0836639404297 0.013720505587605132 
162.0898895263672 0.025922440719374357 
172.5273895263672 0.008392521774858937 
173.08316040039062 0.0766233415176195 
174.08888244628906 0.020127459444533164 
188.10659790039062 1.0 
189.11038208007812 0.1254866073804961 
194.0806427001953 0.012825998215370933 
207.0881805419922 0.014923669471281806 
208.91424560546875 0.00706396453184885 
222.11245727539062 0.01284749513572829 
256.0975341796875 0.009099805283577752 
258.2621765136719 0.00695286924105717 
337.19183349609375 0.016695018481182794 
355.20098876953125 0.00810605616383211 
379.1979064941406 0.00795705751900795 
397.2109680175781 0.09878063978272827 
398.2146301269531 0.023012345809933814 
457.23211669921875 0.5831057702544448 
457.3482666015625 0.008812393572396554 
458.2351989746094 0.15539651369370808 
459.2355651855469 0.00890862460742042 
END IONS

BEGIN IONS
CHARGE=1+
PRECURSOR_MZ=245.080834864
COMPOUND_NAME=challenge_35
FORMULA=C14H12O4
SMILES=OC1=CC=CC(O)=C1/C=C/C2=CC(O)=CC(O)=C2
INCHIKEY=DQULNTWGBBNZSC-SNAWJCMRSA-N
ADDUCT=[M+H]+
IONMODE=positive
PARENT_MASS=244.073558864
55.01948547363281 0.016058091210367234 
61.2182731628418 0.015259187187889548 
62.36351013183594 0.017415855315878227 
68.99882507324219 0.023968500572172383 
79.05646514892578 0.06782582281894892 
82.91002655029297 0.01696166492837424 
95.01448059082031 0.0400121472975288 
99.3460922241211 0.017611829951916257 
99.45233154296875 0.015653837970629386 
107.03456115722656 0.044961798599238455 
107.05207824707031 0.7820908226086566 
108.05583953857422 0.05862611530716625 
111.04405212402344 0.08244242349298486 
123.04766082763672 0.080669783702893 
128.06666564941406 0.024582977678143034 
133.03085327148438 0.03422118962149895 
135.02279663085938 0.053375905644293335 
135.0438232421875 1.0 
136.05303955078125 0.1292268063157088 
137.02589416503906 0.020999267870210357 
147.04798889160156 0.059658156494252115 
152.0659637451172 0.029279258170650517 
153.07394409179688 0.05064809677961744 
156.98216247558594 0.020328551548716906 
157.06471252441406 0.12386530723619245 
160.05523681640625 0.02745505945211895 
161.0592803955078 0.2598280666523239 
162.06646728515625 0.022827542168745482 
169.06854248046875 0.017425470887005676 
171.08438110351562 0.05821589950991158 
181.06422424316406 0.24747630527436532 
182.07174682617188 0.03273519847261541 
185.06361389160156 0.025989590458676992 
197.06214904785156 0.0402869495084801 
198.06707763671875 0.10064918321238492 
199.0743865966797 0.23930066555897153 
200.08383178710938 0.022538107503594786 
209.0596160888672 0.1493775229836484 
210.07069396972656 0.03171449663611506 
226.0615997314453 0.37264086719902806 
226.99534606933594 0.029685612585349085 
227.06932067871094 0.8347124501558169 
228.07273864746094 0.11237003256593878 
243.07000732421875 0.018631619627858077 
244.07473754882812 0.08420615733206431 
245.02760314941406 0.028336553347532496 
245.0800018310547 0.6747860496810317 
246.08447265625 0.10372116511847666 
END IONS

BEGIN IONS
CHARGE=1+
PRECURSOR_MZ=503.3367151919999
COMPOUND_NAME=challenge_36
FORMULA=C30H46O6
SMILES=C[C@@]12C([C@@]3([H])[C@@](CC2)(CC[C@H]([C@]3(O)C)C)C(O)=O)=CC[C@@]4([H])[C@]1(CC[C@]5([H])[C@@]4(CC[C@@H]([C@]5(C)C(O)=O)O)C)C
INCHIKEY=UIEGOKVPCRANSU-XUFMHOFVSA-N
ADDUCT=[M+H]+
IONMODE=positive
PARENT_MASS=502.3294391919999
56.12752914428711 0.040962206052395485 
81.07164764404297 0.0648925082419849 
93.07222747802734 0.046987920843672745 
95.07540893554688 0.029116671179964554 
95.08784484863281 0.11082161402254066 
105.07244110107422 0.07808903137541626 
107.07279968261719 0.021933148182394255 
107.08806610107422 0.09193157190645568 
109.1033935546875 0.05699110017706467 
119.08551025390625 0.12480318212287048 
121.1024398803711 0.04431177535522581 
131.087158203125 0.04548296775480416 
133.10467529296875 0.07490979775776337 
135.1198272705078 0.038413711240741576 
143.08934020996094 0.029288889448091587 
145.10487365722656 0.08836415861176726 
146.1064910888672 0.025608392520130877 
147.11614990234375 0.11271465751672889 
159.12008666992188 0.06320754661495936 
161.1354522705078 0.04664488114720834 
173.13661193847656 0.07568313762732667 
175.1516876220703 0.06792313596036118 
185.13711547851562 0.05751416941679565 
187.1466827392578 0.12044187020757921 
189.1683807373047 0.03822162213891502 
199.1538543701172 0.0757723148202139 
201.16439819335938 0.11552427997424941 
213.1686553955078 0.03187413795030124 
221.15853881835938 0.06667891404591515 
222.1671142578125 0.02592304906222268 
227.1804962158203 0.02339845018839903 
245.1591339111328 0.02983920756627574 
297.3020324707031 0.024996324630944425 
421.3083190917969 0.24695138140523512 
422.3160400390625 0.053151922774126344 
429.11981201171875 0.04126527565089373 
437.70428466796875 0.02615930403266177 
439.33563232421875 0.10612585875189655 
449.3131103515625 0.059910484834899 
457.3459167480469 0.06968288102890757 
467.31536865234375 0.33727816293680335 
468.3309020996094 0.08814288028448648 
485.34356689453125 0.09767864341608282 
503.18463134765625 0.05421898759404618 
503.3406677246094 0.05717161808912989 
504.1736755371094 0.03789789926638394 
504.3548583984375 0.03334967338314849 
505.16192626953125 1.0 
END IONS

BEGIN IONS
CHARGE=1+
PRECURSOR_MZ=812.3276666280002
COMPOUND_NAME=challenge_38
FORMULA=C45H49NO13
SMILES=CC(O[C@]12[C@@]([C@]3([C@@H](O)C[C@@]1([H])OC2)C)([H])[C@@H]([C@]4(C(C)(C([C@@H](O)C3=O)=C(C)[C@@H](OC([C@H](O)[C@H](C5=CC=CC=C5)NC(C6=CC=CC=C6)=O)=O)C4)C)O)OC(C7=CC=CC=C7)=O)=O
INCHIKEY=TYLVGQKNNUHXIP-MHHARFCSSA-N
ADDUCT=[M+H]+
IONMODE=positive
PARENT_MASS=811.3203906280002
77.04134368896484 0.01580587919466015 
79.05673217773438 0.03807022886342124 
86.09966278076172 0.015744068474470584 
91.05713653564453 0.12903040282839534 
91.16139221191406 0.010913262446654207 
93.0726547241211 0.02007746123794289 
94.12013244628906 0.011804296515269787 
95.05227661132812 0.034758910870683106 
105.01115417480469 0.04070078594680235 
105.01939392089844 0.07711218556964261 
105.03679656982422 1.0 
105.05540466308594 0.01684755550606568 
105.07186889648438 0.021141874557529056 
106.04024505615234 0.06251851789861736 
118.06884765625 0.045365129114267544 
119.03471374511719 0.015410618321092527 
119.05274963378906 0.03778574708948489 
119.08872985839844 0.011028002612715243 
121.06734466552734 0.011759733648517463 
121.10457611083984 0.010003420441721323 
122.0417251586914 0.04291895532610376 
122.063720703125 0.5669876524788701 
123.06623840332031 0.03253730555316168 
131.08949279785156 0.012506030558449966 
133.0681915283203 0.012802098538635103 
133.10394287109375 0.011489215416221821 
136.07757568359375 0.018311813268626336 
149.09967041015625 0.013418923175737707 
155.08901977539062 0.012450938697208855 
169.10389709472656 0.014030532698513653 
183.08377075195312 0.013004316718030094 
183.12255859375 0.012010655904414169 
240.10972595214844 0.060529412922074546 
249.13572692871094 0.01233379963420028 
263.14825439453125 0.013503836755019597 
268.10467529296875 0.025934470031095825 
281.1597900390625 0.023037708417613514 
286.002197265625 0.017416407768489944 
286.0393371582031 0.03042659062071996 
286.1065673828125 0.7775356701022117 
287.1094970703125 0.13249673310437612 
291.1461486816406 0.013343834710483338 
299.17352294921875 0.02011723187507256 
309.1564636230469 0.02804671792058955 
327.1692199707031 0.04515789891648926 
345.17645263671875 0.013993256246496734 
743.235595703125 0.010555277329569452 
END IONS

BEGIN IONS
CHARGE=1+
PRECURSOR_MZ=289.070664104
COMPOUND_NAME=challenge_40
FORMULA=C15H12O6
SMILES=O=C1C[C@@H](C2=CC=C(O)C(O)=C2)OC3=C(O)C(O)=CC=C13
INCHIKEY=ZPVNWCMRCGXRJD-ZDUSSCGKSA-N
ADDUCT=[M+H]+
IONMODE=positive
PARENT_MASS=288.063388104
89.04066467285156 0.023018993845687223 
97.03143310546875 0.010382143491682906 
107.01460266113281 0.022960013259674533 
117.03668975830078 0.05662672120536909 
125.0256118774414 0.025414183626792323 
135.04396057128906 0.11013698524907671 
145.02793884277344 0.11256198668630549 
153.01805114746094 0.48122904867348737 
154.0257110595703 0.03610570842493602 
163.01048278808594 0.027028391339556698 
163.0386199951172 0.6095600494010225 
164.04217529296875 0.05697530494030049 
169.06910705566406 0.012551081248277803 
179.0329132080078 0.06664798475744534 
197.06118774414062 0.04987900949661309 
215.07261657714844 0.015551616151378848 
225.05557250976562 0.06188986540600226 
237.9081268310547 0.014271526961420814 
243.07215881347656 0.015289501551711491 
253.0567626953125 0.041786686627626905 
265.9081726074219 0.011647198308332161 
271.05975341796875 0.09917801044914887 
272.0649719238281 0.01897784102961088 
274.05145263671875 0.02400231697387019 
289.0699462890625 1.0 
290.07293701171875 0.15833041344611778 
291.0820007324219 0.012265504817937804 
END IONS

BEGIN IONS
CHARGE=1+
PRECURSOR_MZ=319.117614296
COMPOUND_NAME=challenge_41
FORMULA=C17H18O6
SMILES=OC1=C(C[C@H](OC(C)=O)C(C)(C)O2)C2=CC(OC(C)=C3)=C1C3=O
INCHIKEY=ZHMBJOBSCRAOAO-AWEZNQCLSA-N
ADDUCT=[M+H]+
IONMODE=positive
PARENT_MASS=318.110338296
56.39168167114258 0.014597913568017241 
64.77196502685547 0.01701949631923173 
189.05426025390625 0.15479041501190433 
193.05198669433594 0.014922758726938344 
205.0491485595703 0.18076226674932572 
206.06039428710938 0.018009667668461456 
217.0485076904297 0.44710754294420285 
218.0151824951172 0.02526920992193994 
218.058837890625 0.06851784603400012 
229.0549774169922 0.03275469384412936 
230.06375122070312 0.06747823976034435 
231.06149291992188 0.024087212394983456 
231.10650634765625 0.06286945359975316 
241.0922088623047 0.05886097644849259 
244.07269287109375 0.07424471114117004 
259.0957336425781 1.0 
260.0985412597656 0.16077371557631212 
319.1169128417969 0.7144672911130701 
320.1174011230469 0.13384030972118177 
END IONS

BEGIN IONS
CHARGE=1+
PRECURSOR_MZ=306.206369724
COMPOUND_NAME=challenge_42
FORMULA=C18H27NO3
SMILES=CC(C)/C=C/CCCCC(NCC1=CC=C(O)C(OC)=C1)=O
INCHIKEY=YKPUWZUDDOIDPM-SOFGYWHQSA-N
ADDUCT=[M+H]+
IONMODE=positive
PARENT_MASS=305.199093724
69.07159423828125 0.011527605158172695 
122.03885650634766 0.02145710186190057 
133.1035919189453 0.00987880592263828 
135.1195526123047 0.009193670728201427 
137.0124053955078 0.012493037097258913 
137.02688598632812 0.030261634636861184 
137.03733825683594 0.06279331822190969 
137.06365966796875 1.0 
138.0669708251953 0.08559065658610442 
170.15914916992188 0.03398204603640328 
182.1599578857422 0.04724169193238009 
306.2060241699219 0.0636944808704267 
307.2221984863281 0.012233809077342702 
END IONS

BEGIN IONS
CHARGE=1+
PRECURSOR_MZ=783.4889182999999
COMPOUND_NAME=challenge_46
FORMULA=C42H70O13
SMILES=O[C@@H]([C@@H]([C@@H](CO)O1)O)[C@@H](O[C@H]2[C@@H]([C@H]([C@@H]([C@@H](CO)O2)O)O)O)[C@@H]1O[C@H]3[C@H](O)C[C@]4(C)[C@@]5([H])C[C@@H](O)[C@@H]6[C@@H](/C(C)=C/C/C=C(C)\C)CC[C@@]6(C)[C@@](C)5CC[C@@]4([H])C3(C)C
INCHIKEY=BMSPHMYCTYOUPF-SNVBIOCGSA-N
ADDUCT=[M+H]+
IONMODE=positive
PARENT_MASS=782.4816422999999
55.055912017822266 0.09610227985310957 
67.05653381347656 0.1703130177552022 
69.03528594970703 0.09824220798082287 
69.07231140136719 0.1361313960462902 
70.0675048828125 0.23048524279704205 
72.08243560791016 0.09324452018380179 
79.0561294555664 0.06272492858910528 
81.07239532470703 0.2966024510400195 
84.04609680175781 0.0684989083885256 
84.08284759521484 0.0989471349655424 
85.03118896484375 0.6668316317756461 
86.09930419921875 0.19589275939666706 
91.0566635131836 0.06425190664991674 
93.07250213623047 0.14087419099111192 
95.08847045898438 0.40924459122768014 
97.03096771240234 0.14620055503357676 
100.5127944946289 0.044044147216548035 
105.05900573730469 0.05784538728613433 
105.07295227050781 0.20717823676958505 
107.08871459960938 0.2444024239856717 
109.03153228759766 0.05824658858306524 
109.10462188720703 0.7045251542517271 
119.08936309814453 0.2222119341132256 
120.0830307006836 0.07201449898074318 
121.10132598876953 0.2656809831004702 
123.12045288085938 0.33602802851402425 
127.04281616210938 0.1490841107089078 
129.10496520996094 0.09765954987018108 
133.10513305664062 0.18368770946147167 
135.12066650390625 0.18994736985600374 
136.07923889160156 0.05685799534623273 
145.05416870117188 0.31810336962950225 
145.1044464111328 0.0914540047250733 
147.12159729003906 0.5290030472842888 
149.10897827148438 0.03865642262875982 
149.13710021972656 0.1596729255187514 
159.12049865722656 0.10750640181368992 
161.13778686523438 0.18128022641762684 
163.06478881835938 0.1843296210503798 
163.15261840820312 0.12444967209711043 
173.13616943359375 0.09207362662483379 
175.15321350097656 0.09512333584302606 
177.1664276123047 0.09768686637249432 
187.15310668945312 0.09132847202706273 
189.16798400878906 0.07364044693153363 
201.1683807373047 0.05688184485485028 
203.18601989746094 0.32884203197026957 
204.18637084960938 0.05698388850672584 
205.16481018066406 0.1356408524845958 
215.18763732910156 0.05999508067019282 
217.1593780517578 0.05087485227592079 
217.2021942138672 0.18413891673552593 
223.1770782470703 0.12842548152544578 
325.123046875 0.17175599494985508 
385.3141784667969 0.07987564175429619 
405.3603210449219 0.08837946947262897 
423.37322998046875 0.18139824838827392 
424.3800048828125 0.072819470689026 
441.372802734375 1.0 
442.3777770996094 0.2717400035233569 
459.3804626464844 0.39686573283726706 
460.3948974609375 0.09909017958634112 
621.4515991210938 0.07318280376370019 
END IONS

BEGIN IONS
CHARGE=1+
PRECURSOR_MZ=495.07693125599985
COMPOUND_NAME=challenge_47
FORMULA=C21H18O14
SMILES=O[C@H]([C@H]([C@@H]([C@@H](C(O)=O)O1)O)O)[C@@H]1OC2=C3C(C(C(O)=C(C4=CC=C(O)C(O)=C4)O3)=O)=C(O)C=C2O
INCHIKEY=KHVMAMXQPVHXTJ-ORYXKJSJSA-N
ADDUCT=[M+H]+
IONMODE=positive
PARENT_MASS=494.06965525599986
55.00524139404297 0.014797804703094629 
80.2254867553711 0.005117943532150919 
85.02837371826172 0.00831615127026712 
98.16815185546875 0.006521393851598787 
108.99163818359375 0.004673053534952054 
113.02285766601562 0.007355352152610388 
121.02810668945312 0.00878796366343561 
123.04440307617188 0.004655434628211058 
137.02223205566406 0.028441108057384572 
153.01881408691406 0.006423561486437777 
169.01316833496094 0.04520220936565186 
175.0392608642578 0.007403329155400754 
181.01364135742188 0.013721454634647752 
199.0409698486328 0.0065266734216055 
217.05059814453125 0.006142137285642029 
227.03379821777344 0.005953637307036227 
245.04656982421875 0.024338793474488463 
263.05462646484375 0.005032938664971043 
273.04071044921875 0.0215787692015346 
289.03125 0.0066219997912974225 
290.0413513183594 0.00989071840404528 
301.0357360839844 0.012141648863638239 
317.0262451171875 0.015148071009911869 
318.0340881347656 0.023490783103299627 
319.044189453125 1.0 
320.04766845703125 0.16354026373369202 
321.0492248535156 0.015410316689424077 
468.7880859375 0.005184928123986989 
495.0758056640625 0.4623712455003055 
496.0787048339844 0.11546497983366473 
497.0853576660156 0.015831464918901438 
END IONS

BEGIN IONS
CHARGE=1+
PRECURSOR_MZ=611.197046388
COMPOUND_NAME=challenge_49
FORMULA=C28H34O15
SMILES=OC1=C(OC)C=CC([C@@H]2CC(C3=C(C=C(O[C@@H]4O[C@H](CO[C@@H]5O[C@@H](C)[C@H](O)[C@@H](O)[C@H]5O)[C@@H](O)[C@H](O)[C@H]4O)C=C3O)O2)=O)=C1
INCHIKEY=QUQPHWDTPGMPEX-QJBIFVCTSA-N
ADDUCT=[M+H]+
IONMODE=positive
PARENT_MASS=610.1897703879999
57.034912109375 0.05315594680277328 
69.03524780273438 0.038469759387651827 
71.05147552490234 0.3561312625541665 
75.91744995117188 0.02580451749875589 
85.03106689453125 0.38224109610220713 
89.06245422363281 0.08428640180569828 
111.04590606689453 0.03304833209029076 
116.18550872802734 0.0277336311990466 
129.0587921142578 0.10904036595709374 
133.08676147460938 0.02652459163721408 
147.06790161132812 0.05042367085061211 
153.02308654785156 0.3592934824423968 
171.03173828125 0.05132602655182793 
177.0237579345703 0.06323122222914662 
177.0543975830078 0.2929055743925798 
178.06407165527344 0.030800852449719827 
179.03836059570312 0.06133537861200423 
191.0366668701172 0.03389235734875742 
195.02853393554688 0.187856042146362 
196.0345458984375 0.02827092690800029 
219.03282165527344 0.057576758716390564 
245.05055236816406 0.062492215754299 
263.0568542480469 0.05059326803354442 
303.0854187011719 1.0 
304.08709716796875 0.13918514584535333 
345.1027526855469 0.05080168364496511 
369.1112365722656 0.04090051718003015 
413.1363830566406 0.084483577948638 
431.1486511230469 0.09604936794894686 
432.1510925292969 0.03610391409464071 
449.1480407714844 0.14106771112701896 
465.157470703125 0.10460234075180896 
592.3771362304688 0.06374773520141219 
609.3994750976562 0.06268181896268295 
613.3377685546875 0.13966491352279847 
END IONS

BEGIN IONS
CHARGE=1+
PRECURSOR_MZ=283.096484928
COMPOUND_NAME=challenge_50
FORMULA=C17H14O4
SMILES=O=C1C=C(C2=CC=C(OC)C(OC)=C2)OC3=CC=CC=C13
INCHIKEY=ZGHORMOOTZTQFL-UHFFFAOYSA-N
ADDUCT=[M+H]+
IONMODE=positive
PARENT_MASS=282.089208928
134.91168212890625 0.00585223869023378 
210.0731964111328 0.008195589522716169 
222.07435607910156 0.04909843994640696 
223.076416015625 0.01252938533810597 
238.06784057617188 0.017812782205353928 
239.0706329345703 0.09788555906050923 
240.0814666748047 0.018929423217600348 
254.0614776611328 0.011867472886990969 
267.0646667480469 0.29520704886832944 
268.07147216796875 0.1152273786684952 
269.0843811035156 0.019837090453897456 
282.99810791015625 0.03218319835329023 
283.02874755859375 0.042603512868747716 
283.0957946777344 1.0 
283.18389892578125 0.01510585160718175 
284.09906005859375 0.1648608522456662 
285.10699462890625 0.007382563654219439 
302.51019287109375 0.006496173113658457 
END IONS

BEGIN IONS
CHARGE=1+
PRECURSOR_MZ=273.112134992
COMPOUND_NAME=challenge_51
FORMULA=C16H16O4
SMILES=O=C1C(CC/C=C(C)/C)=CC(C2=C1C(O)=CC=C2O)=O
INCHIKEY=VOMDIEGPEURZJO-UHFFFAOYSA-N
ADDUCT=[M+H]+
IONMODE=positive
PARENT_MASS=272.104858992
54.93940353393555 0.01615013232269222 
55.0560417175293 0.03573535256859812 
55.936275482177734 0.0781733149593349 
57.07175064086914 0.057488140084769115 
62.02765655517578 0.011890597399398087 
70.0672607421875 0.054767439397488536 
70.95941162109375 0.0165777024693828 
71.08736419677734 0.020885757048132423 
72.93931579589844 0.09148869970616316 
88.07833099365234 0.0915706315533908 
90.95008850097656 0.024707978734387025 
91.04317474365234 0.030363476676390028 
91.0568618774414 0.43232155304192676 
92.05995178222656 0.029453622444947425 
102.0942611694336 0.02928605419570088 
106.06976318359375 0.014628322351534793 
106.0893325805664 0.04205950373828515 
108.96001434326172 0.02131187874727398 
113.9638442993164 0.0698858231738792 
114.2888412475586 0.010063274018330804 
116.9739761352539 0.018547901517670436 
123.02825927734375 0.02039471552935129 
124.72261047363281 0.011090748420635932 
128.95413208007812 0.045900724339472315 
131.9759521484375 0.011747898616325423 
139.989990234375 0.01920153961742117 
156.0067596435547 0.011784621545352472 
164.00559997558594 0.03852682693957584 
164.50613403320312 0.014651279466451552 
170.0067596435547 0.012073564581804046 
170.50851440429688 0.024500452467424837 
178.521240234375 0.012139220862486214 
179.0114288330078 0.03261641335373412 
179.50962829589844 0.06851942316989208 
180.01583862304688 0.011185953253813934 
188.01629638671875 0.013664160236835192 
190.0200653076172 0.014691127348754487 
190.5232391357422 0.03267948423341481 
191.02716064453125 0.02192583138664356 
192.0258026123047 0.01145327971244289 
192.5235137939453 0.03625216354899642 
198.03636169433594 0.01973112853065209 
198.53338623046875 0.012616573328202284 
199.5303955078125 0.04386366419583616 
204.01708984375 0.019926740148420708 
204.5197296142578 0.03247940490031833 
205.02198791503906 0.021767894979854343 
206.53504943847656 0.08026930533612527 
207.03646850585938 0.10609828902522639 
207.54428100585938 0.01771018486907636 
212.03797912597656 0.04353293756376729 
213.02334594726562 0.022461921626661333 
213.52398681640625 0.03743957014526661 
214.0240478515625 0.013183049817339861 
216.04495239257812 0.014834608204505308 
218.54806518554688 0.015065860309315417 
221.04225158691406 0.042154865430990354 
227.5601043701172 0.017331097666037035 
229.54519653320312 0.017399288173690533 
231.5517578125 0.031284286600200356 
232.03948974609375 0.1318109430190079 
232.54286193847656 0.36119645060486816 
233.04469299316406 0.11189008565909658 
233.5502471923828 0.014802053733977633 
240.5572052001953 0.04196796007322069 
241.0472869873047 0.11604457142328238 
241.5482940673828 0.6157065647291853 
242.04885864257812 0.16538353645121717 
242.5579833984375 0.03330284176954278 
250.55609130859375 0.018764778169924123 
252.56231689453125 0.024807587871594657 
253.05494689941406 0.09503745405017085 
253.56524658203125 0.029879285802775466 
254.2548065185547 0.027778149098518286 
256.2711486816406 0.04299828464650938 
269.0501403808594 0.03247434089629133 
271.1920471191406 0.013228348846332665 
272.0649108886719 0.022800015094113935 
272.2662048339844 0.02916530795908356 
273.10455322265625 0.18117062685427987 
273.16162109375 0.029173673800534133 
274.123291015625 0.03864118532225577 
274.2733459472656 1.0 
275.27593994140625 0.07128875698547761 
281.05438232421875 0.02931101377266698 
285.0848083496094 0.031060598239542166 
295.06756591796875 0.015556882915954976 
END IONS

BEGIN IONS
CHARGE=1+
PRECURSOR_MZ=271.06009942
COMPOUND_NAME=challenge_52
FORMULA=C15H10O5
SMILES=O=C1C2=C(C=CC=C2)C(C3=CC(O)=C(CO)C(O)=C13)=O
INCHIKEY=AMIDUPFSOUCLQB-UHFFFAOYSA-N
ADDUCT=[M+H]+
IONMODE=positive
PARENT_MASS=270.05282342
55.93484115600586 0.008487061280157408 
57.07005310058594 0.010425043950710053 
65.03929138183594 0.006354471842226995 
67.05482482910156 0.004802870953222763 
67.76165008544922 0.005962827987942466 
69.0701904296875 0.005725661106634901 
72.9373550415039 0.009704645256146584 
77.84053039550781 0.007386664719334403 
81.07039642333984 0.008800788995328575 
84.96011352539062 0.009797876955385821 
89.98153686523438 0.005042479691460043 
91.05447387695312 1.0 
95.04830932617188 0.005369545320538854 
95.08594512939453 0.009798785016689867 
106.06556701660156 0.01664026683157458 
113.96388244628906 0.011831717101848374 
118.54327392578125 0.004867709787950719 
119.0493392944336 0.012891197967680075 
123.02574920654297 0.03841646596113878 
133.0760040283203 0.016891144216966116 
141.95849609375 0.006543814161521439 
150.03582763671875 0.013682301247233738 
153.01821899414062 0.04152278487335463 
159.9681396484375 0.01367717456928847 
163.0369415283203 0.005561823568982255 
167.03359985351562 0.011751553884276341 
181.10108947753906 0.00792955507439316 
182.050537109375 0.018859747827711045 
191.88058471679688 0.010142685749436975 
203.0347137451172 0.005321161194590615 
204.927734375 0.006949390445186217 
207.87403869628906 0.01670942336885586 
208.88250732421875 0.018131839642617477 
209.8893280029297 0.00871048983188514 
215.06918334960938 0.010008471845484614 
220.882080078125 0.0072855489033768475 
221.929443359375 0.017819216803233295 
222.93800354003906 0.009077244798125349 
225.88668823242188 0.013694552609461428 
226.89266967773438 0.010130792725302361 
230.13973999023438 0.006361381387919446 
230.8922576904297 0.03156719165007091 
243.06407165527344 0.007111902199761542 
248.90431213378906 0.03351625769069559 
249.9259033203125 0.03324987675341344 
264.8930358886719 0.005497535136135899 
269.067626953125 0.005274309846262099 
269.1411437988281 0.007189612023003134 
269.20428466796875 0.013060550722214138 
271.05889892578125 0.6533191011577578 
271.1596984863281 0.01179508381853759 
271.9228820800781 0.0068719242647010915 
272.0620422363281 0.10754707802431922 
272.1320495605469 0.008821173546396097 
272.14910888671875 0.006252448643636024 
272.25390625 0.006559788710829846 
273.1055603027344 0.4839739477347603 
273.1671447753906 0.054455049200906054 
END IONS

BEGIN IONS
CHARGE=1+
PRECURSOR_MZ=287.05501404
COMPOUND_NAME=challenge_53
FORMULA=C15H10O6
SMILES=O=C1C=C(C2=CC=C(O)C=C2O)OC3=CC(O)=CC(O)=C13
INCHIKEY=ZSYPIPFQOQGYHH-UHFFFAOYSA-N
ADDUCT=[M+H]+
IONMODE=positive
PARENT_MASS=286.04773804
51.12226486206055 0.004977130792845041 
107.03477478027344 0.009793680927033394 
107.04930114746094 0.05891578136724029 
108.054931640625 0.006662850404162213 
112.53096008300781 0.003937248393444746 
135.0227813720703 0.0063581979659010236 
135.0436248779297 0.10521014484801693 
136.0497283935547 0.006854065732952739 
153.01795959472656 0.3094712280312139 
154.0258026123047 0.02404649760035307 
286.9546203613281 0.027262623149498025 
286.9844665527344 0.03440088793238137 
287.05419921875 1.0 
287.1431579589844 0.01148174245810505 
288.05792236328125 0.15852581972725774 
289.0660705566406 0.011271460303477218 
END IONS

BEGIN IONS
CHARGE=1+
PRECURSOR_MZ=379.12884767599996
COMPOUND_NAME=challenge_54
FORMULA=C21H18N2O5
SMILES=O=C1[C@](O)(CC)C2=C(CO1)C(N3CC4=CC5=CC(OC)=CC=C5N=C4C3=C2)=O
INCHIKEY=KLFJSYOEEYWQMR-NRFANRHFSA-N
ADDUCT=[M+H]+
IONMODE=positive
PARENT_MASS=378.121571676
53.2963752746582 0.009445763701192381 
57.03485870361328 0.014561573240631434 
69.45130157470703 0.010096409866706301 
81.29524230957031 0.010613828278999135 
85.70189666748047 0.009752076820038138 
87.60664367675781 0.010545172003540125 
114.11119079589844 0.010344371756275067 
129.82122802734375 0.009495050576816348 
146.7670135498047 0.010207213927013603 
198.0856475830078 0.045748607364965714 
211.0882110595703 0.012272912981177346 
235.09278869628906 0.019740282242194953 
236.10256958007812 0.018239039903193987 
243.46322631835938 0.0108729885133708 
249.11204528808594 0.034828087190989905 
250.11122131347656 0.07188583606258443 
251.11685180664062 0.0487297375350862 
276.0953369140625 0.01584918876107492 
277.1014099121094 0.017345544231149906 
278.1065673828125 0.055771260250280556 
279.1100158691406 0.08593058058478387 
280.1216735839844 0.01715906522476514 
292.1298522949219 0.03208706751618704 
307.150634765625 0.03058425314676992 
320.126220703125 0.015489428797537383 
333.1336669921875 0.011063815052340994 
335.1381530761719 0.43869257701308406 
336.1423645019531 0.09345369051203363 
350.09600830078125 0.02577943048791527 
379.02020263671875 0.035193995150918186 
379.1278991699219 1.0 
380.0267639160156 0.012330359964546437 
380.13037109375 0.23520508314706792 
381.14678955078125 0.023684635004489148 
END IONS

BEGIN IONS
CHARGE=1+
PRECURSOR_MZ=425.19586461599994
COMPOUND_NAME=challenge_56
FORMULA=C25H28O6
SMILES=C1(=O)C2=C(C=C(O)C(OC)=C2C/C=C(/C)\C)OC2=C1C(O)=C(C/C=C(/C)\C)C(OC)=C2
INCHIKEY=YRKKJHJIWCRNCW-UHFFFAOYSA-N
ADDUCT=[M+H]+
IONMODE=positive
PARENT_MASS=424.18858861599995
51.85749053955078 0.008623228743496173 
55.0560417175293 0.02256974776881009 
57.07147216796875 0.010724293444835194 
67.05663299560547 0.040432811984568606 
69.07234191894531 0.06679628191442558 
79.05706787109375 0.020955358368188792 
81.07250213623047 0.12768479216900955 
83.08833312988281 0.03290974000803145 
91.05679321289062 0.01553750396503096 
93.0727767944336 0.07073710853466578 
95.08866882324219 0.19436823930537003 
97.10372924804688 0.014303857680916758 
105.07322692871094 0.06768889479921916 
107.07123565673828 0.02307854814597687 
107.08907318115234 0.1328882389939612 
109.10477447509766 0.21430442403308464 
110.10587310791016 0.013458397433158449 
119.0893783569336 0.08338073680233107 
121.08390045166016 0.020505718029538936 
121.1048812866211 0.1138248250226405 
122.10774230957031 0.015409136936327396 
123.1207275390625 0.1197957950212971 
131.08883666992188 0.012879795990104442 
133.10533142089844 0.08574445085769594 
135.12109375 0.14088075241803522 
136.1239013671875 0.013934832000370793 
137.1326446533203 0.04320957272989304 
145.10597229003906 0.03120265782452692 
147.1216583251953 0.11536715869864425 
148.12551879882812 0.010644702152848866 
149.1329803466797 0.07067027218941768 
150.13922119140625 0.01027071806190192 
159.122314453125 0.03383597757747833 
161.13763427734375 0.07622951378038363 
162.13909912109375 0.013825496611075364 
163.14813232421875 0.06956397876191818 
165.16737365722656 0.010647954717309588 
171.12110900878906 0.011024702674730224 
173.13775634765625 0.038215045355246856 
175.1536865234375 0.04712417515135012 
177.1690673828125 0.02162878277985243 
179.14700317382812 0.01354416216180006 
187.15353393554688 0.03943882432486748 
189.1637725830078 0.04958740820229117 
191.18634033203125 0.032340530618910554 
192.184326171875 0.009803325468299125 
201.17079162597656 0.03522716425059285 
203.1792449951172 0.08248828233772432 
204.1892852783203 0.012449136370088387 
205.20079040527344 0.025673114360726567 
207.1741943359375 0.058807695047839274 
213.17071533203125 0.011036815453925436 
215.1874542236328 0.02721526132722441 
217.19610595703125 0.08721925227120232 
218.20529174804688 0.013918726891021034 
220.08702087402344 0.013276112376762673 
227.18634033203125 0.012782602376556275 
229.20272827148438 0.028397884995453794 
243.21536254882812 0.021648641881843525 
245.2340087890625 0.013508243213369723 
247.20718383789062 0.010613136930624269 
255.21543884277344 0.01030377908187264 
257.23193359375 0.01529780149217332 
261.22796630859375 0.018527665188802462 
269.23114013671875 0.013136624816730474 
271.24188232421875 0.04342787857626782 
273.26666259765625 0.011753952521424747 
283.06671142578125 0.013518407565713599 
285.0837097167969 0.014763460103279098 
285.26690673828125 0.02798320035391975 
297.26373291015625 0.015630284444803327 
298.0548400878906 0.02162400047046269 
299.0635070800781 0.016567594453736418 
311.0654296875 0.031379352911473354 
313.0823669433594 0.03625031819826096 
323.2776184082031 0.010581428847338342 
351.13568115234375 0.033141355979031326 
369.1325988769531 0.3990808189183033 
370.1349182128906 0.07704273552012335 
407.36700439453125 0.10542199199896583 
408.38653564453125 0.03621826074188445 
425.099609375 0.015961317569830713 
425.1971740722656 0.13700013678451559 
425.3771667480469 1.0 
426.2070007324219 0.031426910085771406 
426.3794250488281 0.2979278096408551 
427.3986511230469 0.023959930171097422 
END IONS

BEGIN IONS
CHARGE=1+
PRECURSOR_MZ=1125.6051298240004
COMPOUND_NAME=challenge_59
FORMULA=C54H92O24
SMILES=C[C@]12[C@](CC=C3[C@@]2([H])CC[C@H](O[C@]4([H])O[C@@H]([C@@H](O)[C@H](O)[C@H]4O)CO[C@@H]5O[C@@H]([C@@H](O)[C@H](O)[C@H]5O)CO)C3(C)C)([H])[C@]6([C@@](C)([C@]([C@H](C)CC[C@H](C(C)(O)C)O[C@@H]7O[C@@H]([C@@H](O)[C@H](O)[C@H]7O)CO[C@@H]8O[C@@H]([C@@H](O)[C@H](O)[C@H]8O)CO)([H])CC6)C[C@H]1O)C
INCHIKEY=OKGRRPCHOJYNKX-APMSXLJSSA-N
ADDUCT=[M+H]+
IONMODE=positive
PARENT_MASS=1124.5978538240004
81.07083892822266 0.07070839101741774 
85.03103637695312 1.0 
91.0415267944336 0.05926277918078378 
91.05606842041016 0.06419993319541105 
95.08844757080078 0.20430673476145056 
97.03123474121094 0.2716586801283482 
105.07162475585938 0.07355640895172522 
107.0723648071289 0.056068838944541316 
107.08866882324219 0.15579089715154337 
109.03041076660156 0.06900674790260164 
109.10452270507812 0.2217561259124102 
119.08902740478516 0.17595900409360313 
121.10482788085938 0.18265123620445434 
123.11968231201172 0.11820859256365582 
127.03939056396484 0.28791278155224576 
127.11444091796875 0.10544722577630061 
131.08877563476562 0.0901692430573628 
133.10499572753906 0.18694481579907224 
135.10023498535156 0.049970057489172284 
135.12130737304688 0.15223632510176263 
145.0537872314453 0.5135366190172863 
145.10479736328125 0.07963169653494083 
147.12112426757812 0.14787347975550733 
149.1367950439453 0.10108940507026423 
159.1204376220703 0.14543139248323914 
161.13653564453125 0.15168389499233564 
163.05918884277344 0.2412993414063207 
163.15249633789062 0.08718429842118937 
173.13543701171875 0.10233119199098419 
175.15208435058594 0.0910998036227642 
185.13430786132812 0.07147824018234357 
187.1533203125 0.14186633666530285 
189.16946411132812 0.15513208762994968 
191.1831817626953 0.0842129210143937 
199.15048217773438 0.08326375456366276 
201.17041015625 0.1326597101165223 
203.18392944335938 0.10276108955615987 
289.0947570800781 0.07489147057441743 
325.1128234863281 0.8313406698780261 
326.123779296875 0.08983053184996798 
405.359619140625 0.1200845283240581 
406.3597717285156 0.09106911617573665 
423.3624267578125 0.9423580001634795 
424.3785095214844 0.22573338443282645 
441.3709716796875 0.8028065439792953 
442.3872375488281 0.20358528892984723 
459.3778381347656 0.3928080677697684 
460.3996276855469 0.10964259012312429 
487.1816101074219 0.08459393170346433 
585.4337158203125 0.08381172066218395 
603.4270629882812 0.48517740946425253 
604.4501953125 0.15889334969174918 
621.4552001953125 0.17159771449369174 
765.4783325195312 0.09949824797733353 
END IONS

BEGIN IONS
CHARGE=1+
PRECURSOR_MZ=303.04992866
COMPOUND_NAME=challenge_60
FORMULA=C15H10O7
SMILES=O=C1C(O)=C(C2=CC=C(O)C=C2O)OC3=CC(O)=CC(O)=C13
INCHIKEY=YXOLAZRVSSWPPT-UHFFFAOYSA-N
ADDUCT=[M+H]+
IONMODE=positive
PARENT_MASS=302.04265266
56.477020263671875 0.004410485856465147 
68.9988021850586 0.005888157123931776 
85.1207046508789 0.004473987931079974 
111.00994873046875 0.00926252622699273 
121.031494140625 0.01363198539988694 
137.02734375 0.03936818201897335 
149.02561950683594 0.0071733904833435475 
153.01815795898438 0.06032349875763041 
154.0237579345703 0.005812558665272827 
161.06097412109375 0.004807616013263154 
162.8804931640625 0.011310097475354606 
163.0414581298828 0.010454243413624874 
165.0178985595703 0.029023195551881105 
166.02780151367188 0.006782043408340421 
172.8668975830078 0.009151730006101413 
179.88609313964844 0.006394896637002725 
180.89361572265625 0.008860434012583575 
183.03125 0.0076532195565260416 
190.87255859375 0.028606330157653834 
201.05291748046875 0.02571733875636274 
206.89170837402344 0.004779095933856592 
208.8825225830078 0.06056935287280263 
226.89266967773438 0.03378643217150867 
229.0488739013672 0.05458164101913249 
230.05780029296875 0.00639422159862691 
237.91416931152344 0.009280867883899603 
245.04830932617188 0.007684951031735194 
247.06341552734375 0.011277074317716991 
257.04364013671875 0.034030265843099296 
258.052978515625 0.006169240534270872 
273.0458679199219 0.007830389100902327 
274.0541687011719 0.014645630265906632 
280.8669738769531 0.06088127666097934 
285.04693603515625 0.015042088012073367 
301.04217529296875 0.01414315996180245 
301.152587890625 0.018012802268637208 
302.0409240722656 0.02512717769715811 
302.939208984375 0.031190206548849533 
302.97650146484375 0.03982389131697156 
303.04925537109375 1.0 
303.8934631347656 0.008004469001639824 
304.0527648925781 0.1653027808254943 
305.066162109375 0.014514176469251624 
END IONS

BEGIN IONS
CHARGE=1+
PRECURSOR_MZ=225.091005624
COMPOUND_NAME=challenge_61
FORMULA=C15H12O2
SMILES=O=C1CC(C2=CC=CC=C2)OC3=CC=CC=C13
INCHIKEY=ZONYXWQDUYMKFB-UHFFFAOYSA-N
ADDUCT=[M+H]+
IONMODE=positive
PARENT_MASS=224.083729624
56.96641540527344 0.0249723234710669 
72.93919372558594 0.01715379518548128 
74.93922424316406 0.024923903929867704 
79.05620574951172 0.016110670090961274 
84.93909454345703 0.023876501936922197 
86.55827331542969 0.01366502866837407 
96.94017791748047 0.02551022442914134 
97.9713363647461 0.08795406145079282 
98.96459197998047 0.045764671050708264 
99.97136688232422 0.03665816935342414 
102.94990539550781 0.022806221008009112 
103.05690002441406 0.04025997006843108 
105.03568267822266 0.032656742716267395 
113.96372985839844 0.10863379099286904 
114.9567642211914 0.22762221331134003 
115.96403503417969 0.14348269286016269 
116.97510528564453 0.07616244496054475 
117.979736328125 0.17140886528770063 
121.02831268310547 0.6198385752933001 
122.03497314453125 0.04073572807669992 
129.07168579101562 0.014706572573232272 
131.04925537109375 0.18109625214479594 
132.9681854248047 0.026834292887063984 
137.9639129638672 0.15050680291040094 
138.9729766845703 0.026422889298030498 
139.99148559570312 0.03871907878203701 
140.9996337890625 0.07014035236776475 
141.93711853027344 0.05361013007076983 
141.9622344970703 0.18948887306293724 
143.0867462158203 0.018896055367499397 
143.95858764648438 0.3006279712310623 
147.04379272460938 0.10362796413327756 
151.0453338623047 0.03155407594854514 
153.96328735351562 0.048356003727953296 
155.08982849121094 0.05444494550587949 
155.9790802001953 0.1667641557937038 
156.09608459472656 0.019928414097690254 
156.9818115234375 0.14129554739802241 
157.98765563964844 0.016870396585909338 
159.94329833984375 0.08953368749170754 
159.97117614746094 0.10030042076511027 
160.0506591796875 0.0661548452359669 
161.94302368164062 0.02010820414662421 
161.969482421875 0.3201189096790733 
166.08181762695312 0.03600094787049593 
168.09555053710938 0.020086403494162106 
169.05599975585938 0.0163817101560585 
171.1207733154297 0.04721481083490187 
171.55703735351562 0.02819068569308673 
174.99856567382812 0.01665954933670148 
177.95574951171875 0.07153574345991846 
179.0852813720703 0.14907257604327598 
180.09063720703125 0.021806775179848026 
181.10064697265625 0.14482944480144194 
182.96620178222656 0.06345381313374082 
183.08482360839844 0.05303947872182531 
183.11639404296875 0.02429399969444388 
183.9669952392578 0.018443165314714367 
184.08914184570312 0.028303650713938755 
184.99122619628906 0.05604848704042898 
197.10252380371094 0.01841445903601402 
198.10667419433594 0.01919971405766156 
199.1116180419922 0.1546513469768216 
200.97222900390625 0.3540964618456826 
201.978515625 0.0502358845090638 
202.9773712158203 0.01776202065181276 
207.08047485351562 0.08857607511058489 
209.10067749023438 0.04582432143069976 
210.0666961669922 0.22177434146612965 
211.07659912109375 0.025980953375846955 
212.08497619628906 0.020450129822698743 
225.09043884277344 1.0 
226.09368896484375 0.18913350947083415 
227.10581970214844 0.46935162509754186 
END IONS

BEGIN IONS
CHARGE=1+
PRECURSOR_MZ=239.07027018
COMPOUND_NAME=challenge_62
FORMULA=C15H10O3
SMILES=O=C1C=C(C2=CC=CC=C2)OC3=CC=CC(O)=C13
INCHIKEY=IYBLVRRCNVHZQJ-UHFFFAOYSA-N
ADDUCT=[M+H]+
IONMODE=positive
PARENT_MASS=238.06299418
59.764469146728516 0.007936665364286584 
59.77103805541992 0.009881402393375982 
71.57241821289062 0.004169258124913874 
97.65827178955078 0.004855695224179417 
103.05644226074219 0.011927660474315894 
137.022705078125 0.035062558963201665 
165.07489013671875 0.004819394450403335 
174.76760864257812 0.005523720038909088 
231.79592895507812 0.005940685938303291 
238.06654357910156 0.011014238081151916 
238.99424743652344 0.02868936976287518 
239.0173797607422 0.030802403462663705 
239.06988525390625 1.0 
239.1361083984375 0.01234889954956089 
240.07330322265625 0.17091746079278344 
241.07723999023438 0.010295860079328693 
256.5968017578125 0.004593058465989495 
END IONS

BEGIN IONS
CHARGE=1+
PRECURSOR_MZ=247.132870436
COMPOUND_NAME=challenge_63
FORMULA=C15H18O3
SMILES=C=C1[C@](CC=C2/C=C/C(C)=O)([H])[C@@](OC1=O)([H])C[C@@H]2C
INCHIKEY=RBRPTFMVULVGIC-MDKNCZOUSA-N
ADDUCT=[M+H]+
IONMODE=positive
PARENT_MASS=246.125594436
54.734371185302734 0.004414612839179478 
55.055789947509766 0.0066131919727686235 
56.050838470458984 0.005450352676515909 
57.07188415527344 0.042553257065609786 
58.06707000732422 0.005606728939050322 
61.55747985839844 0.010287160127531645 
61.56400680541992 0.006669837224633054 
70.06742095947266 0.05560887730450841 
71.04304504394531 0.006692462303053897 
71.0515365600586 0.018167273936055148 
71.08744049072266 0.010478510142965036 
74.05204010009766 0.00801988977224512 
74.06236267089844 0.025085789607244526 
85.10296630859375 0.009414907120738886 
88.0784683227539 0.09034128965253775 
91.05624389648438 0.01068693485401682 
93.07207489013672 0.010669919981450834 
95.0396499633789 0.005650631880751771 
95.0520248413086 0.019501925038824683 
102.09463500976562 0.028568874366382942 
105.07252502441406 0.016049659919826008 
106.08943939208984 0.053970304755666575 
107.08989715576172 0.005754123966726667 
109.0675048828125 0.011389679840041007 
117.07244110107422 0.011227434936065333 
119.08898162841797 0.019786171879420923 
124.09059143066406 0.1544183641035038 
125.0929946899414 0.006202900951900581 
128.0629425048828 0.0054269522913358535 
128.95314025878906 0.009923587919441914 
129.0727081298828 0.006482353573076816 
131.08920288085938 0.020636988491844192 
133.06912231445312 0.00510350759211008 
133.1051483154297 0.004916088250335181 
139.67779541015625 0.0050332071303029165 
142.08045959472656 0.007999883148828192 
143.0858154296875 0.02283673238026373 
145.068359375 0.007607469648941865 
145.1026153564453 0.008353030591805241 
147.0830078125 0.009216220406158134 
148.08966064453125 0.008636156946629874 
154.0819854736328 0.006947735642907719 
155.0890350341797 0.009426487667224096 
157.1062469482422 0.016858070363319086 
159.08522033691406 0.015338187946916488 
159.12176513671875 0.017627677182098 
162.729736328125 0.004684886211194174 
165.0945281982422 0.007078134941394849 
168.0980224609375 0.01213685181770574 
169.10498046875 0.007822730938422878 
175.11524963378906 0.007971820154943429 
176.97727966308594 0.019689075475979007 
177.9739990234375 0.004701288794818761 
183.1171417236328 0.03817517397692243 
184.1266326904297 0.006316166928177955 
184.21141052246094 0.03986345469647142 
187.08096313476562 0.009205730433918327 
187.11195373535156 0.02949327213680745 
189.0927276611328 0.007893162412714816 
201.12722778320312 0.030740522956469417 
201.95289611816406 0.0049795467496384005 
202.22314453125 0.005571045086519257 
204.97119140625 0.008750833550483037 
205.12786865234375 0.005445620673070407 
227.22793579101562 0.006875518450501392 
228.2317352294922 0.04530501697366645 
229.1230010986328 0.026910352026023966 
229.24444580078125 0.00603136851903851 
245.2345428466797 0.007717509966233381 
246.12786865234375 0.009229558553923102 
246.16094970703125 0.025994657313263825 
246.18740844726562 0.04389250377526533 
246.2423858642578 1.0 
247.1305694580078 0.06176887615437433 
247.19134521484375 0.01138709309125487 
247.24546813964844 0.15977978263384837 
248.13792419433594 0.007783629394907724 
248.25758361816406 0.014200378615791433 
249.13650512695312 0.004516350614142499 
END IONS

BEGIN IONS
CHARGE=1+
PRECURSOR_MZ=442.1469573280001
COMPOUND_NAME=challenge_69
FORMULA=C19H19N7O6
SMILES=O=C(O)CC[C@@H](C(O)=O)NC(C1=CC=C(NCC2=CN=C3N=C(N)NC(C3=N2)=O)C=C1)=O
INCHIKEY=OVBPIULPVIDEAO-LBPRGKRZSA-N
ADDUCT=[M+H]+
IONMODE=positive
PARENT_MASS=441.1396813280001
108.05892181396484 0.040869315672336856 
120.02704620361328 0.01730012580083136 
120.04441833496094 0.2740998415258739 
121.04932403564453 0.013780826949541915 
176.05642700195312 0.31012092633504373 
177.06385803222656 0.015033741392183223 
295.0202941894531 0.037502423859750174 
295.0931396484375 1.0 
296.0966491699219 0.14735261705448174 
313.1083679199219 0.06888804192743692 
442.15802001953125 0.015175549274325956 
END IONS

BEGIN IONS
CHARGE=1+
PRECURSOR_MZ=801.4994829839998
COMPOUND_NAME=challenge_70
FORMULA=C42H72O14
SMILES=C[C@]12[C@]3([C@@]([C@@H](C[C@]1([H])[C@@]4([C@@](C(C)([C@H]([C@@H](C4)O)O[C@H]5[C@@H]([C@H]([C@@H]([C@H](O5)CO)O)O)O[C@@H]6O[C@@H]([C@H]([C@@H]([C@H]6O)O)O)CO)C)([H])CC2)C)O)([H])[C@@](CC3)([H])[C@](C)(O)CC/C=C(C)\C)C
INCHIKEY=LTJZMSTVPKBWKB-XUYZQZLKSA-N
ADDUCT=[M+H]+
IONMODE=positive
PARENT_MASS=800.4922069839997
61.029788970947266 0.06644219074033955 
67.05606079101562 0.17983405417886286 
69.03528594970703 0.1705978089046463 
69.0714111328125 0.10660019997303812 
79.05512237548828 0.05593253346402607 
81.03543090820312 0.05794596238892186 
81.07231140136719 0.19896583961844339 
81.9808120727539 0.056216232104424606 
83.08773040771484 0.07108331562260405 
85.0306625366211 1.0 
86.09760284423828 0.07639166410286584 
91.055908203125 0.07721667796246814 
93.07186889648438 0.11880884933808705 
95.08602905273438 0.3569786361657867 
96.3594970703125 0.052188885938814066 
97.031005859375 0.2389987414816304 
99.08301544189453 0.061193194049441686 
105.07223510742188 0.17414920135176784 
107.08555603027344 0.2740519528280751 
109.03025817871094 0.10854925687927332 
109.10148620605469 0.49621447296810417 
119.08863067626953 0.17395820989794578 
121.10420989990234 0.23897434282457083 
122.9839859008789 0.07074089914671179 
123.12014770507812 0.23596880179360286 
127.0386734008789 0.2688100624173847 
127.11382293701172 0.0925112434288968 
129.10589599609375 0.05838927176656626 
133.1037139892578 0.16823804412689028 
135.11929321289062 0.07712452334379209 
145.04934692382812 0.38585756516343295 
145.103271484375 0.08987921259776682 
147.116943359375 0.3773041224752273 
149.1359100341797 0.128794402386079 
161.1362762451172 0.1662985736312062 
163.0637664794922 0.16740836984964738 
163.15162658691406 0.10194381736316722 
175.04119873046875 0.07725307034139683 
175.1511688232422 0.08622473411117988 
187.49386596679688 0.0673470014016206 
193.0477294921875 0.0643171302491466 
203.18577575683594 0.20438475736392248 
205.16168212890625 0.11816031452884514 
215.1836700439453 0.06206515476321754 
217.1554718017578 0.0623969396613672 
217.19906616210938 0.12484249673102543 
234.99383544921875 0.09244880753962366 
277.00518798828125 0.11708822999873826 
325.11376953125 0.27599229715206675 
405.35845947265625 0.0957921089123154 
423.374267578125 0.23601554304111577 
424.381591796875 0.08192292018753795 
441.3722229003906 0.995455681587108 
442.3938903808594 0.24128995357195995 
459.3827819824219 0.3829875703234748 
460.39898681640625 0.104804302895072 
800.2454833984375 0.1583998168181725 
803.4619140625 0.11453010619515486 
END IONS

BEGIN IONS
CHARGE=1+
PRECURSOR_MZ=179.033884672
COMPOUND_NAME=challenge_72
FORMULA=C9H6O4
SMILES=O=C1C=CC2=CC=C(O)C(O)=C2O1
INCHIKEY=ATEFPOUAMCWAQS-UHFFFAOYSA-N
ADDUCT=[M+H]+
IONMODE=positive
PARENT_MASS=178.026608672
55.06269454956055 0.004737345006111169 
55.93623352050781 0.007686627290432692 
56.96620559692383 0.00908215086467344 
61.01231384277344 0.004030429181321012 
77.04143524169922 0.005065467525530171 
79.05563354492188 0.0048724007560146665 
84.96147918701172 0.0055110707476895586 
88.02493286132812 0.004809439948002473 
89.0411148071289 0.012748620182791319 
95.05181884765625 0.005167057610478003 
96.93891143798828 0.004378226313479125 
97.99333953857422 0.007908096769236716 
105.03668212890625 0.018182063872142308 
107.0520248413086 0.006620467094789394 
111.97108459472656 0.007779985736238441 
113.9660873413086 0.010341419343452788 
116.97528839111328 0.014216719233298158 
117.0370864868164 0.013151783405121036 
121.06796264648438 0.0055020355640840735 
122.35604858398438 0.004087418283451962 
123.04766082763672 0.05744422789524588 
133.0076904296875 0.012120822778940776 
133.0321807861328 0.16708520281867156 
134.03221130371094 0.02022899813880677 
135.04383850097656 0.04349005103450214 
136.05018615722656 0.0044812770523223935 
139.98765563964844 0.004785153342624863 
146.5010528564453 0.007409345307866284 
150.03561401367188 0.026602110022003994 
151.040771484375 0.006326818509493512 
155.9790496826172 0.0182500290618091 
161.02740478515625 0.012937664111872206 
178.03118896484375 0.016468199638578096 
178.98471069335938 0.03145131717508879 
178.9999542236328 0.052137991038116935 
179.0334014892578 1.0 
179.07919311523438 0.017801718355438628 
180.03675842285156 0.09093198037175967 
181.04251098632812 0.006725357796910327 
END IONS

BEGIN IONS
CHARGE=1+
PRECURSOR_MZ=483.1285729039999
COMPOUND_NAME=challenge_73
FORMULA=C25H22O10
SMILES=O=C1[C@H](O)[C@@H](C2=CC=C(O[C@H](C3=CC=C(O)C(OC)=C3)[C@@H](CO)O4)C4=C2)OC5=CC(O)=CC(O)=C15
INCHIKEY=FDQAOULAVFHKBX-HKTJVKLFSA-N
ADDUCT=[M+H]+
IONMODE=positive
PARENT_MASS=482.1212969039999
53.14189910888672 0.010375132502892096 
91.057373046875 0.029937150389636027 
102.04853057861328 0.016291775171873413 
103.05802917480469 0.027329902119289217 
105.03598022460938 0.01468933936252733 
105.07268524169922 0.015391090811997231 
107.05181121826172 0.018519120625930488 
111.04719543457031 0.03043965955510184 
119.05296325683594 0.05048180934200531 
121.03228759765625 0.03414998166324487 
121.06770324707031 0.016674265579836003 
123.048095703125 0.027618916204595965 
124.05619812011719 0.03708114636530427 
130.04547119140625 0.06950770780660961 
131.05316162109375 0.17785527808828372 
132.0588836669922 0.009917739562171573 
133.02903747558594 0.05853431728453548 
133.0684814453125 0.021787292130059786 
135.0484161376953 0.0418668101529281 
137.02633666992188 0.011491056719026753 
137.0639190673828 0.21425109823987534 
138.06692504882812 0.01826419905614119 
139.04200744628906 0.020388727834655607 
146.04014587402344 0.019962131215752344 
147.02049255371094 0.028107255604320924 
147.0487823486328 0.4108478831129768 
148.0526580810547 0.032613288880836276 
149.0280303955078 0.20641284516266353 
149.0637664794922 0.054451868783956484 
150.0308837890625 0.012715136580072147 
150.041748046875 0.010508735263625614 
150.07208251953125 0.06250049590767884 
151.0454559326172 0.009693849756606691 
151.07994079589844 0.02725596637902444 
152.08477783203125 0.010238614578440984 
152.978515625 0.026986813623735898 
152.9921417236328 0.06706222780582927 
153.02317810058594 1.0 
154.0269775390625 0.0844062531028352 
159.0486297607422 0.016736147123815538 
161.06497192382812 0.11505120933775415 
162.03878784179688 0.02764530167783857 
162.0725555419922 0.4094175579780681 
163.0450897216797 0.018525744860612998 
163.07420349121094 0.1860602116726877 
164.0819549560547 0.016229643399248594 
165.02359008789062 0.025805543334287417 
165.05712890625 0.014700879452686805 
167.03916931152344 0.09831144982222301 
171.0323486328125 0.012932492005786233 
175.0438690185547 0.010119616071368777 
177.02215576171875 0.02569216246030191 
177.05979919433594 0.0646445231846758 
178.06332397460938 0.014857305340676382 
179.0433349609375 0.009418117694051495 
179.07717895507812 0.025305240730511866 
180.0831298828125 0.04093733812481456 
187.0450439453125 0.023504413414555673 
195.02845764160156 0.21637321913638033 
196.03578186035156 0.01765109224166722 
201.06039428710938 0.034952305692270376 
203.03909301757812 0.02050965651450533 
213.06036376953125 0.03904826653969489 
223.07785034179688 0.01704611444595629 
229.0500030517578 0.08626702610297875 
230.0572052001953 0.01492382748862306 
231.07034301757812 0.01676842775646052 
237.05772399902344 0.013669030923965724 
239.07855224609375 0.01548626527723223 
241.05569458007812 0.02424175533920595 
242.06243896484375 0.019046909708987907 
243.82876586914062 0.009096411804939437 
251.06881713867188 0.0403392234184021 
252.08291625976562 0.01922905455210128 
255.06434631347656 0.041600202905403894 
257.042724609375 0.08158420173895624 
258.06024169921875 0.012346962662828784 
259.0581970214844 0.009806515204147265 
267.0695495605469 0.015774173806887982 
271.1033630371094 0.021993023297797346 
279.07080078125 0.016695535014685417 
281.0881042480469 0.010449286624520035 
283.0699157714844 0.0411437312610592 
283.1128234863281 0.009751206711718257 
285.08526611328125 0.020635027890211828 
287.0633850097656 0.017155062860711418 
289.0763244628906 0.019944797195051538 
295.0679016113281 0.021588628784148658 
302.48382568359375 0.009882232117405314 
311.0534362792969 0.17359267406232137 
312.0708923339844 0.027357845834550202 
313.0791015625 0.01712578952142161 
329.0653076171875 0.172365243412235 
330.0816955566406 0.026869688419294546 
341.0780029296875 0.01794819667403728 
357.1033020019531 0.01198592139937904 
359.0907897949219 0.026785529701466852 
391.13037109375 0.015586045086943444 
419.1097106933594 0.05666857155876832 
420.1230773925781 0.014380832465752707 
435.106201171875 0.10050407150213475 
436.12701416015625 0.028889818394786333 
437.1195983886719 0.04349669035764753 
438.1393737792969 0.012928026561870788 
444.0245666503906 0.012233690979524854 
447.1020202636719 0.06306538934922062 
448.1219177246094 0.01916985272943219 
453.1242370605469 0.021083478569072132 
464.1099853515625 0.0582576326470238 
465.1187438964844 0.1500629739057565 
466.13958740234375 0.0342221885510513 
481.2622375488281 0.043989900116732115 
482.1242980957031 0.046843089023308276 
482.2764892578125 0.015157552417350662 
483.1260681152344 0.13397167964968135 
484.15069580078125 0.034493268066908556 
END IONS

BEGIN IONS
CHARGE=1+
PRECURSOR_MZ=153.12739113199999
COMPOUND_NAME=challenge_74
FORMULA=C10H16O
SMILES=O=C1C(C2(C)C)(C)CCC2C1
INCHIKEY=DSSYKIVIOFKYAU-UHFFFAOYSA-N
ADDUCT=[M+H]+
IONMODE=positive
PARENT_MASS=152.120115132
57.07136917114258 0.0077490286945931415 
70.94385528564453 0.04964072112988127 
70.9600601196289 0.021440754958303547 
72.92900085449219 0.03758754784912436 
72.93922424316406 0.49549274873266097 
84.0130615234375 0.00617704773964778 
90.95069885253906 0.01932060252852595 
91.70738220214844 0.006316218692750711 
111.9710922241211 0.09532350887434539 
111.98597717285156 0.021190253476579553 
112.97296905517578 0.011091632594209503 
113.92742156982422 0.008698702602805648 
113.93892669677734 0.026633514028202666 
113.9467544555664 0.05987936949789429 
113.96354675292969 1.0 
129.98085021972656 0.013376072204192012 
131.97401428222656 0.1528263209941048 
153.1302032470703 0.009941231469672794 
168.28822326660156 0.006515939140477999 
202.59732055664062 0.007103291680234874 
END IONS

BEGIN IONS
CHARGE=1+
PRECURSOR_MZ=265.191054008
COMPOUND_NAME=challenge_75
FORMULA=C15H24N2O2
SMILES=O=C1CCC[C@]2([H])[C@@]3([H])CCC[N@@+]4([O-])[C@@]3([H])[C@](CCC4)([H])CN21
INCHIKEY=XVPBINOPNYFXID-JARXUMMXSA-N
ADDUCT=[M+H]+
IONMODE=positive
PARENT_MASS=264.183778008
51.785919189453125 0.004087021982006863 
66.29383850097656 0.007092694441184926 
66.30118560791016 0.006790929101457087 
84.08126831054688 0.004975469280500579 
98.0866470336914 0.004719287334878122 
98.09932708740234 0.013989896781583655 
112.07841491699219 0.009198475461848984 
120.08250427246094 0.005489530127580776 
124.1144027709961 0.005571527777158097 
136.11227416992188 0.027397967187034543 
137.12274169921875 0.017938503287230605 
148.111572265625 0.043977291926095834 
150.1318817138672 0.016583809675401035 
176.11077880859375 0.008141271395516618 
205.1328125 0.05801556560131721 
206.14161682128906 0.010600298086065269 
206.19656372070312 0.009419897698462663 
220.19801330566406 0.012927209706290861 
232.08023071289062 0.00528904766369116 
247.17965698242188 0.07272216450519692 
248.18614196777344 0.03214107784146604 
265.0987243652344 0.02958928849222408 
265.1903076171875 1.0 
266.1940612792969 0.16045523897822944 
267.203125 0.012123585799648626 
END IONS

BEGIN IONS
CHARGE=1+
PRECURSOR_MZ=161.0209143
COMPOUND_NAME=challenge_76
FORMULA=C7H5NaO3
SMILES=O=C(O[Na])C1=CC=CC=C1O
INCHIKEY=ABBQHOQBGMUPJH-UHFFFAOYSA-M
ADDUCT=[M+H]+
IONMODE=positive
PARENT_MASS=160.0136383
61.011409759521484 0.01881770430250884 
62.019264221191406 0.026548991657073983 
63.007450103759766 0.007730482036478217 
63.99851989746094 0.02813289059299051 
65.99445343017578 0.020473656766690728 
75.2423324584961 0.007645909241549224 
79.02151489257812 1.0 
80.02516174316406 0.05614147597818287 
81.0172119140625 0.9769309478439764 
81.02590942382812 0.045056722168748876 
82.02064514160156 0.04606688065941308 
83.09049987792969 0.007469089842539059 
84.9599609375 0.04063484334115923 
99.4880599975586 0.007352279766588842 
105.98030853271484 0.025914284144538457 
107.99781799316406 0.0076763216429938715 
108.99584197998047 0.017703953622349545 
110.80184936523438 0.006847436358362111 
113.98741912841797 0.006535150771127211 
114.96989440917969 0.006731382908816382 
114.98624420166016 0.11889786012673183 
115.48709869384766 0.007817494496400304 
115.98323059082031 0.01513719741040866 
118.00130462646484 0.017941821382582285 
123.98934173583984 0.01935709297750434 
134.917236328125 0.01041994975628077 
137.47525024414062 0.04144284074083709 
144.987548828125 0.09499814649818226 
145.4885711669922 0.012297333362328172 
145.98324584960938 0.008757446355484306 
150.95059204101562 0.034801095408735085 
168.9606475830078 0.030099470586768814 
END IONS

BEGIN IONS
CHARGE=1+
PRECURSOR_MZ=515.300329684
COMPOUND_NAME=challenge_77
FORMULA=C30H42O7
SMILES=CC1(C)[C@@H](O)CC[C@]2(C)C3=C([C@@]4(C(C[C@H]([C@]4(CC3=O)C)/C(C)=C/C(CC(C)C(O)=O)=O)=O)C)[C@@H](O)CC12
INCHIKEY=QECQJYAIIIIKJB-BVKBSTOZSA-N
ADDUCT=[M+H]+
IONMODE=positive
PARENT_MASS=514.2930536839999
53.2520866394043 0.01024919142714303 
55.05570602416992 0.019476317348745747 
57.253639221191406 0.039448723702824554 
57.3653564453125 0.014781001671164593 
67.05615234375 0.046233271858424484 
69.02611541748047 0.028295277110775133 
69.03549194335938 0.46575341942459875 
69.071533203125 0.021816636255652274 
70.03836822509766 0.011610452868518846 
71.05098724365234 0.019474502828359778 
79.05619049072266 0.0204189476663844 
81.07138061523438 0.022372133439794457 
87.04443359375 0.0747663227655666 
91.05635833740234 0.021835907938076965 
93.07247161865234 0.05810407693038576 
95.05146026611328 0.03649751481898831 
95.08805847167969 0.09594227922096683 
97.06723022460938 0.03385405380176228 
105.06996154785156 0.059328678506854964 
107.08831787109375 0.03773014282654283 
109.0671157836914 0.02420811335095276 
109.10405731201172 0.1318157466197482 
111.08329010009766 0.029382396210823027 
115.0389175415039 0.0808880804520486 
119.08565521240234 0.05482412730772265 
121.07125854492188 0.016172408894407346 
121.1013412475586 0.2796388100802459 
122.08211517333984 0.011849524611286324 
122.0999755859375 0.029101623056362165 
123.08282470703125 0.01849439702150559 
129.0709991455078 0.014776238555151418 
131.08755493164062 0.012890206314614289 
133.1048583984375 0.03181248178534082 
135.02650451660156 0.010896121121475697 
135.04367065429688 0.05241642805289495 
135.08384704589844 0.04567021923712493 
135.1191864013672 0.02229537445241421 
137.09889221191406 0.02563934018065608 
137.13539123535156 0.028073152467497687 
139.05307006835938 0.028985756379610584 
139.07505798339844 0.5927202206123404 
139.1157684326172 0.016454901068181236 
140.0823211669922 0.03851899471194932 
143.08908081054688 0.024275428584506018 
145.10501098632812 0.03565182026086865 
147.0843505859375 0.031570534157990306 
147.1194610595703 0.02017923997329026 
149.09959411621094 0.029743379414163773 
151.0800323486328 0.032876387613226074 
156.09228515625 0.012422769801643925 
157.0905303955078 0.04649967644236486 
159.084716796875 0.030029333501831953 
159.11895751953125 0.01777191838179648 
161.07266235351562 0.017528245223696157 
161.09521484375 0.058966104342458095 
163.08367919921875 0.015033015979795167 
163.11581420898438 0.05092557816696838 
165.09095764160156 0.09558842169995521 
169.1031494140625 0.01565605412729939 
171.085205078125 0.028681212139901918 
171.1201629638672 0.023130233979712377 
173.0991973876953 0.026570102319502277 
175.08106994628906 0.027304190851011104 
175.11668395996094 0.03679825637961058 
177.0598602294922 0.018480833698668347 
183.1201934814453 0.021721801519738092 
185.10023498535156 0.04065704668731435 
186.07069396972656 0.02391019992437704 
187.07879638671875 0.034230176095643876 
187.11550903320312 0.03343763005509752 
189.0956268310547 0.014389084802105108 
189.13221740722656 0.011904409512004104 
191.11219787597656 0.021102846043102308 
193.09326171875 0.02194360710261274 
194.111572265625 0.01619229807808779 
195.12701416015625 0.012900315320233504 
197.10206604003906 0.023037979943246665 
199.1165313720703 0.03344135025598455 
201.131103515625 0.029968425522081794 
203.11041259765625 0.011890340467576031 
207.1210174560547 0.025624895643373016 
209.1366729736328 0.017320172261015336 
211.11099243164062 0.09930827531035417 
212.12396240234375 0.014535683290034884 
213.0926971435547 0.019162511675440263 
213.13209533691406 0.028142104242164605 
220.1271514892578 0.013651881633330889 
221.14015197753906 0.01630818971534707 
223.11557006835938 0.029585032123782724 
225.1302490234375 0.026078241407126005 
227.147705078125 0.017277496304282117 
229.12173461914062 0.05313937551605307 
235.15699768066406 0.015588887571552877 
237.12850952148438 0.022099061144579317 
249.1301727294922 0.017507412966920374 
253.16461181640625 0.02746939034337602 
263.14459228515625 0.021449612609447704 
269.1978454589844 0.039596450839798236 
279.14227294921875 0.01621376302947184 
287.2103271484375 0.014647596439414398 
289.1846618652344 0.023783817277206763 
297.15643310546875 0.012637868604623058 
307.14202880859375 0.03068029486077819 
323.205078125 0.02946604646880789 
325.1393127441406 0.06235129180654969 
331.2040100097656 0.02413173202690644 
341.2210998535156 0.015158021458083988 
343.15167236328125 0.053055968351708435 
349.21661376953125 0.03284505240890517 
359.22119140625 0.057927764585896234 
361.1659851074219 0.01409268636982294 
365.2439270019531 0.08140051316372898 
366.2586975097656 0.019914673785004094 
367.2297058105469 0.03214051711851523 
383.26171875 0.02539313407364376 
385.2190856933594 0.012727363962367993 
405.2497253417969 0.02803278590034661 
415.2703857421875 0.016335276207161343 
419.2640380859375 0.029257328873884686 
433.2846984863281 0.042162178324604185 
437.2796936035156 0.018114020588920043 
443.25897216796875 0.058848130130664915 
444.2763977050781 0.019491671316700727 
451.28997802734375 0.020590680300330386 
461.267822265625 0.17703973275257567 
462.2829284667969 0.05010710792607508 
479.2785949707031 0.22272124716205538 
480.2817077636719 0.0724292335313088 
497.288330078125 0.23460481030917066 
498.2955322265625 0.0809279738547928 
515.0504760742188 0.01546345450891473 
515.2996826171875 1.0 
516.3042602539062 0.341308506388223 
517.3212890625 0.04419332118976418 
END IONS

BEGIN IONS
CHARGE=1+
PRECURSOR_MZ=631.2749027840001
COMPOUND_NAME=challenge_78
FORMULA=C33H42O12
SMILES=O[C@@H](C1)[C@]2(C)[C@]([C@@]3(OC(C)=O)[C@]1([H])OC3)([H])[C@H](OC(C4=CC=CC=C4)=O)[C@]5(O)C[C@H](OC(C)=O)C(C)=C(C(C)5C)[C@@H](OC(C)=O)[C@@H]2O
INCHIKEY=WPPPFZJNKLMYBW-FAEUQDRCSA-N
ADDUCT=[M+H]+
IONMODE=positive
PARENT_MASS=630.2676267840001
52.29140853881836 0.0355440797594629 
53.04036331176758 0.04588596864002624 
55.055572509765625 0.03802263006388078 
67.0561294555664 0.0525369324517746 
69.03524017333984 0.051581930373545706 
69.07140350341797 0.0492156586161369 
77.0408935546875 0.049820449948814176 
79.05609893798828 0.06955902096490628 
81.06240844726562 0.031200851701156374 
81.07174682617188 0.07937631090735728 
83.05070495605469 0.04315890313158396 
91.05662536621094 0.09179147277873227 
93.07270050048828 0.12740981133918558 
95.05213928222656 0.14294041632446342 
95.08794403076172 0.08802923731647787 
97.03121948242188 0.1293589600499481 
105.03665161132812 1.0 
105.07279968261719 0.1606697609948508 
106.03865814208984 0.07196245123910107 
107.05204010009766 0.05538541902253216 
107.08854675292969 0.14334877996489273 
109.06759643554688 0.07465200577039523 
109.10304260253906 0.051143350153027865 
117.07300567626953 0.07426223977759518 
119.08955383300781 0.1085389241776971 
121.06784057617188 0.07487531239634601 
121.10501861572266 0.09648958551347946 
123.04732513427734 0.05845422703321694 
123.08405303955078 0.1013085277901081 
129.07254028320312 0.0753602059084469 
131.06915283203125 0.03594600410231987 
131.089111328125 0.12958627552940896 
131.5462646484375 0.03327637737341291 
133.06890869140625 0.1690776876089501 
133.1050567626953 0.15289029266052725 
135.04798889160156 0.06517734407840112 
135.08433532714844 0.09434888838782987 
135.11892700195312 0.045526112740043284 
137.09927368164062 0.06463315753877284 
142.08006286621094 0.03429333585355773 
143.08984375 0.13841534017341 
145.0704345703125 0.04403097588391419 
145.0772247314453 0.04241226029507908 
145.10511779785156 0.13911198574132946 
147.0847930908203 0.07095320704357769 
149.0635223388672 0.0655150440135337 
149.09910583496094 0.06833028284508849 
151.1139373779297 0.034128589750555646 
155.0624237060547 0.04082827584384037 
155.0897216796875 0.09483482395665357 
157.0524139404297 0.059948481206004364 
157.10609436035156 0.10378173908625797 
159.08445739746094 0.09874259183486525 
159.11875915527344 0.04284631676347087 
161.10096740722656 0.10783307173214444 
163.07931518554688 0.051308304667374516 
163.1157684326172 0.03989058723157354 
165.0736083984375 0.0414734744583806 
169.10450744628906 0.06717440287943076 
171.0848388671875 0.07491663301027777 
171.1184539794922 0.07389978793042337 
173.1014404296875 0.06195065221472116 
175.08140563964844 0.04574519903626671 
177.0951385498047 0.043978149737813624 
179.0871124267578 0.04769891134250055 
180.0995635986328 0.047403227747405845 
181.10577392578125 0.1184978234990313 
183.1190643310547 0.07905798709752336 
185.0994873046875 0.06565006391608152 
185.13604736328125 0.053871837762409495 
189.13230895996094 0.05321941217800938 
192.0966339111328 0.047876719933010216 
193.1037139892578 0.0816391983783734 
194.11404418945312 0.040996856102607816 
195.11753845214844 0.16101243828327114 
197.09974670410156 0.04888489755282909 
197.13525390625 0.05514204361004933 
199.1160125732422 0.06683607158051906 
206.11338806152344 0.04984511604441741 
207.1242218017578 0.12761518233001334 
208.1292724609375 0.09459288903434639 
209.09768676757812 0.05530352562361088 
209.13731384277344 0.051815663696469914 
213.13064575195312 0.06086786333354975 
217.1048583984375 0.045529275688684256 
219.12033081054688 0.0362896621500087 
221.13742065429688 0.0653729810334888 
223.1129913330078 0.05971643356307292 
223.1557159423828 0.05132704942889407 
225.1330108642578 0.09459586196087909 
227.15200805664062 0.04109290308372291 
232.13194274902344 0.09402260203868468 
233.13540649414062 0.05570948027408691 
237.1700439453125 0.06306128239962762 
241.1678924560547 0.04673890126225679 
247.1565704345703 0.12535179834961754 
249.134765625 0.06045658806404201 
250.141357421875 0.06328460128506926 
251.1508331298828 0.09457742368663094 
253.125244140625 0.06995365397557635 
255.18003845214844 0.035949023001943275 
265.1592712402344 0.18427089914636674 
269.1629333496094 0.13295039015584462 
271.1394958496094 0.05045289562799095 
275.15118408203125 0.08699110976049662 
281.15911865234375 0.045003818586211976 
283.1694641113281 0.21051620106428073 
287.16357421875 0.5299790156746907 
288.1764831542969 0.1010057061064622 
293.152099609375 0.3426431825167499 
293.3983459472656 0.032952953615382696 
294.1631164550781 0.07321068807912609 
301.1920166015625 0.04229970284465303 
311.1629943847656 0.7129565753141716 
312.1761779785156 0.12619228452375605 
329.17333984375 0.41889606325191137 
330.1895751953125 0.09333631574053895 
347.1935729980469 0.044015510536198746 
353.18914794921875 0.07656468249585972 
356.0916442871094 0.03315316949030529 
371.1999816894531 0.16797517933673606 
389.1974792480469 0.23911975090283794 
390.210205078125 0.06482460174798763 
449.2155456542969 0.4352782247315711 
450.2329406738281 0.10671353502713074 
493.2340393066406 0.03470331774678012 
631.2732543945312 0.26308109741469893 
632.3027954101562 0.09788715521162726 
END IONS

BEGIN IONS
CHARGE=1+
PRECURSOR_MZ=944.3699253640002
COMPOUND_NAME=challenge_79
FORMULA=C50H57NO17
SMILES=CC(O[C@]([C@@]1([H])C[C@@H]2O[C@@](OC[C@@H](O)[C@@H]3O)([H])[C@@H]3O)(CO1)[C@]([C@@H]([C@]4(C(C)(C)C5=C(C)[C@@H](OC([C@H](O)[C@H](C6=CC=CC=C6)NC(C7=CC=CC=C7)=O)=O)C4)O)OC(C8=CC=CC=C8)=O)([H])[C@@]2(C([C@@H]5O)=O)C)=O
INCHIKEY=ORKLEZFXASNLFJ-DYLQFHMVSA-N
ADDUCT=[M+H]+
IONMODE=positive
PARENT_MASS=943.3626493640002
69.03530883789062 0.008980416656341085 
70.06729125976562 0.024232238392724884 
72.08229064941406 0.014474617326641985 
74.06331634521484 0.009652024978690789 
77.04045867919922 0.01824579944384492 
79.05488586425781 0.04419641921579711 
84.04607391357422 0.013604759705322909 
84.08322143554688 0.02630556371420373 
86.0979232788086 0.019597478666285993 
91.0430679321289 0.013522092385282656 
91.05680084228516 0.15741436454006966 
92.0600357055664 0.012148537704415638 
93.07166290283203 0.019406497323410044 
95.04939270019531 0.05291164169416459 
95.08773040771484 0.009995838832120546 
99.25847625732422 0.008871870432424201 
103.05715942382812 0.012840305189264125 
105.01153564453125 0.034297578805834734 
105.01904296875 0.06147886306302674 
105.03643798828125 1.0 
105.07182312011719 0.021448855860485363 
106.03700256347656 0.06652895395337767 
110.07329559326172 0.016710265521898984 
118.0685043334961 0.0324213168769991 
119.05274200439453 0.03169845312296186 
119.08920288085938 0.011007652242035032 
120.08245849609375 0.01699449334077678 
121.10388946533203 0.015674190522877093 
122.0311508178711 0.014610825360324283 
122.0415267944336 0.0251299090968998 
122.05994415283203 0.4946994108322748 
123.06649780273438 0.041230196696552285 
129.10482788085938 0.019516173426582566 
131.08827209472656 0.011848586199455812 
136.07962036132812 0.028352989588546755 
143.08917236328125 0.011826068297287823 
145.1060791015625 0.013746579161380036 
149.0988006591797 0.011480860614847944 
161.09844970703125 0.012819262666620026 
181.1043243408203 0.01315625678052058 
199.1154022216797 0.014168651004399534 
210.09584045410156 0.011246302661561753 
240.1023406982422 0.05915771880319086 
251.15296936035156 0.010528224864393573 
268.1025085449219 0.01993249938225797 
281.1610412597656 0.011170946251702327 
286.0059814453125 0.014473413367148651 
286.037841796875 0.021861322173524433 
286.1065979003906 0.7386101397981487 
287.10980224609375 0.11360582695876416 
299.171630859375 0.013179977397135893 
309.1552429199219 0.01893161062857333 
327.1675109863281 0.03530528418643355 
345.1754455566406 0.014001774997356518 
509.20599365234375 0.04239787056892109 
510.23968505859375 0.014933806481362916 
641.2523803710938 0.01281766029240294 
676.2138061523438 0.018735258157202818 
END IONS

BEGIN IONS
CHARGE=1+
PRECURSOR_MZ=465.11800821999987
COMPOUND_NAME=challenge_80
FORMULA=C25H20O9
SMILES=O=C1C=C(C2=CC=C(OC(C3=CC=C(O)C(OC)=C3)C(CO)O4)C4=C2)OC5=CC(O)=CC(O)=C15
INCHIKEY=NMICSFNNFDNGEL-UHFFFAOYSA-N
ADDUCT=[M+H]+
IONMODE=positive
PARENT_MASS=464.1107322199999
51.67845916748047 0.04046251061055559 
51.79020690917969 0.011538101558303593 
67.46034240722656 0.0056538732515453915 
84.5716323852539 0.006712900596466327 
87.03211975097656 0.005803788898576455 
91.05579376220703 0.0068821685240629486 
116.27452850341797 0.008735288163682313 
119.0506591796875 0.00898972478963276 
130.04421997070312 0.010949201799210842 
146.03990173339844 0.018548162738572786 
147.0476837158203 0.015801894930993706 
148.05198669433594 0.035576017366708956 
153.02247619628906 0.02509513712809967 
161.06454467773438 0.023448799044846175 
162.07041931152344 0.013710924324199802 
203.0384979248047 0.009030964525810313 
229.05706787109375 0.01716193820698722 
242.056396484375 0.06417119213064128 
243.06520080566406 0.013216386698416014 
253.05824279785156 0.02026904518887974 
256.98828125 0.018794793869397784 
257.0436706542969 0.3581432944985893 
258.0504150390625 0.1447068732700078 
259.06060791015625 0.013914250843583015 
270.0607604980469 0.04729564501275921 
271.0613098144531 0.01078155362850191 
285.0381164550781 0.033820017224318474 
285.979248046875 0.010503267989501405 
286.0460510253906 0.24795922778476248 
287.0536804199219 0.16802037558475372 
288.06561279296875 0.019841447145639676 
297.0389709472656 0.040800397674238265 
298.0521545410156 0.006650267034290699 
327.05450439453125 0.013149604129342886 
341.0715026855469 0.015283957854313872 
388.8459167480469 0.00751497650770378 
432.0931701660156 0.02501204145193544 
433.0888671875 0.008245377991503593 
435.1080322265625 0.04263873805062313 
447.1064758300781 0.23138121230610198 
448.1119384765625 0.06074961382981285 
464.90557861328125 0.025285099727372473 
465.11676025390625 1.0 
466.120361328125 0.28622306691651045 
467.1199951171875 0.041504943779460464 
END IONS

BEGIN IONS
CHARGE=1+
PRECURSOR_MZ=963.5523064040003
COMPOUND_NAME=challenge_81
FORMULA=C48H82O19
SMILES=C[C@]12[C@](CC=C3[C@@]2([H])CC[C@H](O[C@]4([H])O[C@@H]([C@@H](O)[C@H](O)[C@H]4O)CO)C3(C)C)([H])[C@]5([C@@](C)([C@]([C@H](C)CC[C@H](C(C)(O)C)O[C@H]6[C@@H]([C@H]([C@H](O)[C@@H](CO)O6)O)O[C@]7([H])O[C@@H]([C@@H](O)[C@H](O)[C@H]7O)CO)([H])CC5)C[C@H]1O)C
INCHIKEY=QATISCJMIITVAB-CNEPTXDISA-N
ADDUCT=[M+H]+
IONMODE=positive
PARENT_MASS=962.5450304040003
67.05608367919922 0.04821744998340548 
69.03543090820312 0.0674594491534099 
69.07195281982422 0.0831489516086451 
71.05107116699219 0.050082755420967504 
73.50375366210938 0.026257975507183597 
81.07240295410156 0.14725077099880712 
83.08769226074219 0.05165373368025586 
85.03121948242188 0.8420004698189796 
91.04167175292969 0.04699193279864485 
93.07312774658203 0.08080093427706604 
95.08865356445312 0.27836961432279794 
97.03153228759766 0.14298421392065017 
97.10355377197266 0.029524837132563306 
103.17256927490234 0.03327241967954251 
105.07327270507812 0.10762569711815624 
107.0890884399414 0.18046022459717873 
109.03079223632812 0.07192121413185319 
109.10472106933594 0.2521903053769489 
119.08936309814453 0.21902506567767616 
121.1050796508789 0.20758498025898234 
123.12116241455078 0.11696162354784449 
127.04304504394531 0.24111723236212268 
127.1158218383789 0.17768443021517924 
131.08859252929688 0.06349394141621328 
133.105224609375 0.1629170047531457 
135.12136840820312 0.1723986636290068 
137.13633728027344 0.06202677574198533 
143.11085510253906 0.03315826077270136 
145.04971313476562 0.35466470441813025 
145.1059112548828 0.11828948850074945 
147.12167358398438 0.14619239868450687 
148.1255340576172 0.037594673474462215 
149.1372833251953 0.11915284653998795 
159.1173553466797 0.18217683849002766 
161.13748168945312 0.1710759676277482 
162.13856506347656 0.03470821385815131 
163.06500244140625 0.13702348663871458 
163.1536407470703 0.09855001982722299 
171.11944580078125 0.0498180402743161 
173.13845825195312 0.18349594821538828 
175.1485137939453 0.15157371510974477 
177.1692352294922 0.04482350286282471 
179.14610290527344 0.036472333278916226 
185.1396026611328 0.04368507914591004 
187.154052734375 0.18523874360598996 
189.1704559326172 0.2111915615500578 
190.17147827148438 0.034353589259410115 
191.1857452392578 0.08081145738709528 
199.15274047851562 0.034244984450042405 
201.16424560546875 0.15313480585484965 
203.1798095703125 0.1423966708045219 
207.18052673339844 0.04454971258608409 
215.18380737304688 0.08142595650187442 
253.20278930664062 0.03564781814341763 
256.3348693847656 0.03584812764744611 
266.0400695800781 0.03323907194385987 
325.1119079589844 0.4910176079748539 
326.1199645996094 0.043385292578153205 
405.34613037109375 0.18454403313732398 
406.3579406738281 0.07192714074742165 
423.3612976074219 1.0 
424.36334228515625 0.27222654259027584 
425.3816223144531 0.042393851452882866 
441.37237548828125 0.8378522430084794 
442.3778076171875 0.24280769843117098 
443.3866271972656 0.049776941215785915 
459.3819885253906 0.414840359874873 
460.4041748046875 0.11903939899538478 
585.4215087890625 0.0537154003509634 
603.4217529296875 0.370929964106261 
604.4310302734375 0.1658458304104343 
621.455078125 0.11682254170721011 
765.4973754882812 0.05022180358764979 
END IONS

BEGIN IONS
CHARGE=1+
PRECURSOR_MZ=249.1485205
COMPOUND_NAME=challenge_82
FORMULA=C15H20O3
SMILES=C/C1=C\CC[C@@](C)(O2)[C@H]2[C@@H](OC(C3=C)=O)[C@H]3CC1
INCHIKEY=KTEXNACQROZXEV-PVLRGYAZSA-N
ADDUCT=[M+H]+
IONMODE=positive
PARENT_MASS=248.1412445
55.05600357055664 0.03631386485424399 
57.07179641723633 0.02403341745031645 
59.050994873046875 0.061245241324948074 
61.76899337768555 0.011729481517138384 
67.05580139160156 0.027859581061958096 
69.0350341796875 0.031515564629431114 
69.0716323852539 0.030067305671343615 
71.05067443847656 0.020047796296088292 
79.05670166015625 0.041081144353067145 
81.07215118408203 0.11824896875499583 
83.08738708496094 0.013347099502737499 
85.06709289550781 0.017330031617050944 
87.63018035888672 0.012353941016509306 
91.05460357666016 0.09204666571167483 
93.07244873046875 0.0665241115691003 
95.05045318603516 0.028103039547432346 
95.08830261230469 0.07613426179875224 
97.06563568115234 0.030602743164025385 
98.98652648925781 0.015425771833552001 
103.0566635131836 0.025179306672084782 
105.03382873535156 0.08736519267114036 
105.07269287109375 0.15504268959652312 
106.07548522949219 0.019223125333599624 
107.0884780883789 0.08313828638153442 
109.06634521484375 0.028195253061038594 
109.1039810180664 0.0271371537199368 
111.08306121826172 0.015231973436122663 
117.0698471069336 0.0696318819996298 
119.08544158935547 0.13416120918583152 
121.06759643554688 0.032748003191324204 
121.1042709350586 0.04532023005814731 
123.08145141601562 0.019537349925367542 
124.0870590209961 0.3621514427274936 
125.09326934814453 0.052386262434832194 
128.06443786621094 0.027205833025474125 
129.0700225830078 0.07556794061653596 
130.07821655273438 0.0360718873241452 
131.08538818359375 0.09313507174671032 
132.09210205078125 0.013493264509169845 
133.067626953125 0.019935318216151167 
133.10496520996094 0.07047384359695673 
135.08401489257812 0.02399691045782216 
135.11953735351562 0.018799837754607 
137.06195068359375 0.022427280475099717 
137.09902954101562 0.020366502220356006 
141.0726318359375 0.02494326258008122 
142.0805206298828 0.026612027619471554 
143.08534240722656 0.17807792148643914 
143.98072814941406 0.014577975368211666 
144.09323120117188 0.024040980900984017 
145.07601928710938 0.02304798108854605 
145.10073852539062 0.34262475760414807 
146.10997009277344 0.04199649498252319 
147.0602569580078 0.015578977388388664 
147.0847625732422 0.049324593952809144 
147.1201629638672 0.03960989933273151 
148.08860778808594 0.021543462655229127 
149.06346130371094 0.023022482691285966 
149.09780883789062 0.020069236490955863 
151.0779571533203 0.020848339225868852 
153.07272338867188 0.01802801478085784 
155.08949279785156 0.04925508040779895 
156.09719848632812 0.025056247935317407 
157.07183837890625 0.02739684020668444 
157.1012420654297 0.14145905916174387 
158.10789489746094 0.01943295819836124 
159.0872039794922 0.025038248076719796 
159.1162109375 0.1144484429812178 
160.12344360351562 0.020405742729509232 
161.06797790527344 0.027189342972032023 
161.10061645507812 0.06684432008607852 
161.1365966796875 0.0721355813107586 
163.0778350830078 0.020649523370860616 
165.07456970214844 0.03933294865677732 
166.07855224609375 0.015743334585285564 
167.08920288085938 0.042237438728837146 
167.92132568359375 0.05812231033500672 
170.113037109375 0.02712914550182692 
171.08433532714844 0.03871249567060968 
171.121337890625 0.059071828720625344 
173.09591674804688 0.12141170282480121 
175.07589721679688 0.095792713484141 
175.11532592773438 0.02252359786991688 
175.15293884277344 0.04138601921195326 
178.08297729492188 0.035637729388447746 
179.09034729003906 0.06835175955962465 
180.09852600097656 0.04258959356891474 
181.10545349121094 0.034402886678217864 
183.93557739257812 0.017176055532672336 
185.0983123779297 0.0337864702571077 
185.13226318359375 0.39703671215289676 
185.92820739746094 0.11474287421972885 
186.14093017578125 0.04972664929576533 
187.1166229248047 0.017437257834946332 
187.15162658691406 0.02741730431732727 
189.09519958496094 0.042849443537749284 
189.13206481933594 0.08375352717410789 
190.1340789794922 0.016651702365897376 
191.0856475830078 0.025603275827130886 
191.11279296875 0.05580399971042514 
192.09906005859375 0.044230222860319524 
193.10028076171875 0.09562517319484619 
194.11215209960938 0.022794946880246334 
195.08628845214844 0.02012748539893399 
195.11709594726562 0.07233512081441622 
196.1240234375 0.016409921975962208 
203.1065216064453 0.02784383869864874 
203.142578125 0.24563724009617824 
203.89442443847656 0.025492389293392724 
203.94371032714844 0.10721267773195492 
204.15243530273438 0.03920730305639955 
204.93588256835938 0.037914546816884526 
205.10678100585938 0.052212389618818245 
206.10658264160156 0.10993088477428624 
207.12147521972656 0.04228117980367686 
208.94332885742188 0.12483545047123615 
209.09947204589844 0.029070718869587148 
213.1274871826172 0.15384075006043066 
214.13427734375 0.02774953598013781 
215.08946228027344 0.020553434370135445 
216.091796875 0.06479109085711235 
217.0989227294922 0.031953458611643955 
218.11476135253906 0.01843196699685176 
219.07821655273438 0.07269299271923871 
220.09014892578125 0.019763660822829578 
221.09886169433594 0.06910083448181102 
221.13580322265625 0.1316340742367156 
222.14309692382812 0.02799553324625572 
223.15234375 0.028397011593611073 
225.0427703857422 0.08331102924783007 
226.04248046875 0.015994861392578115 
226.903076171875 0.02914964225118757 
226.95339965820312 0.19294730968492502 
227.02967834472656 0.021895571816488317 
227.9551544189453 0.046738417928838136 
229.00872802734375 0.026328059234522246 
231.13839721679688 0.7858798559757434 
232.14047241210938 0.12810341892203989 
233.09693908691406 0.022359423388293574 
233.14193725585938 0.028407375877091013 
234.10231018066406 0.18072735065315132 
235.1166229248047 0.04532694244030365 
236.12628173828125 0.03893673058598288 
248.12237548828125 0.021163965436117125 
249.04428100585938 0.02938071937272731 
249.13961791992188 1.0 
249.2291259765625 0.0806962005839811 
249.9760284423828 0.017098377499910375 
250.14064025878906 0.22752552128475226 
250.23143005371094 0.01701198683357585 
251.1430206298828 0.35973848559118893 
END IONS

BEGIN IONS
CHARGE=1+
PRECURSOR_MZ=493.13405220799984
COMPOUND_NAME=challenge_83
FORMULA=C23H24O12
SMILES=O=C1C(C2=CC=C(OC)C(O)=C2)=COC3=CC(O[C@@H]4[C@@H]([C@H]([C@@H]([C@@H](CO)O4)O)O)O)=C(OC)C(O)=C13
INCHIKEY=HFODKTZIQVSGJO-IJLXDYNCSA-N
ADDUCT=[M+H]+
IONMODE=positive
PARENT_MASS=492.12677620799985
66.83513641357422 0.0066668018859686335 
81.35674285888672 0.007057884686527596 
98.16785430908203 0.006251069464684331 
156.76918029785156 0.007226941876912037 
230.85702514648438 0.006975518487317152 
237.87811279296875 0.008052733605278962 
245.0500030517578 0.014990943403393447 
270.0557861328125 0.010776067926693797 
271.0646667480469 0.006988422705292319 
273.0378112792969 0.037068081421838185 
278.49432373046875 0.007347834448686133 
284.0367736816406 0.016758998676812038 
298.0523986816406 0.017184321765786544 
299.0621337890625 0.01759280534221528 
301.0321044921875 0.04036781624233611 
315.05865478515625 0.021594862830340237 
316.0572814941406 0.29095090754860203 
317.062255859375 0.05094636867016255 
318.65032958984375 0.007859717083544679 
330.95599365234375 0.028634493556232547 
330.9971008300781 0.03471697193714346 
331.0803527832031 1.0 
332.0837707519531 0.17458482771306175 
333.09454345703125 0.019533492634057553 
385.82537841796875 0.008346455766618091 
493.14068603515625 0.018299842299198822 
END IONS

BEGIN IONS
CHARGE=1+
PRECURSOR_MZ=395.1336582839999
COMPOUND_NAME=challenge_85
FORMULA=C19H22O9
SMILES=OC1=CC(C)=C(C(C=C(CC(C)=O)O2)=O)C2=C1[C@@H]3O[C@@H]([C@@H](O)[C@H](O)[C@H]3O)CO
INCHIKEY=HKIKAXXIWJHWLY-ZIIYPAMZSA-N
ADDUCT=[M+H]+
IONMODE=positive
PARENT_MASS=394.12638228399993
98.77934265136719 0.015472404322198385 
99.74905395507812 0.01250679142612081 
175.0787811279297 0.01562598188161265 
203.06967163085938 0.15022353952141454 
204.07693481445312 0.07587562041137125 
215.072265625 0.024275759111310132 
217.09239196777344 0.05060492238456054 
218.09603881835938 0.014520466183734173 
233.08056640625 0.31612659148132416 
234.09231567382812 0.040672546246843196 
243.10813903808594 0.04962907300152922 
245.08094787597656 0.1906355066030552 
246.08985900878906 0.03824611476806071 
257.080810546875 0.0886343874020887 
258.0873718261719 0.016611570214801998 
259.10601806640625 0.022147075793067187 
271.10284423828125 0.026584837728387857 
275.09100341796875 0.2511550310323449 
276.1029968261719 0.041764514484066095 
285.1159362792969 0.022784689667531065 
287.0968017578125 0.02366488311029827 
299.0903015136719 0.1652250493953789 
300.09820556640625 0.02707483267108681 
305.1099548339844 0.023497125426478006 
313.1123962402344 0.028186137868681356 
317.1073913574219 0.028996955972816856 
329.0993347167969 0.06870597411976803 
330.1119079589844 0.018813304272226716 
341.113037109375 0.05296863245608637 
359.10980224609375 0.08014521123903474 
360.1216125488281 0.018286868523903516 
377.1240539550781 0.08150644680603276 
378.1401062011719 0.022185575887879054 
395.1325988769531 1.0 
396.1370849609375 0.2113596292274717 
397.1490478515625 0.024376880389418192 
END IONS

BEGIN IONS
CHARGE=1+
PRECURSOR_MZ=245.117220372
COMPOUND_NAME=challenge_86
FORMULA=C15H16O3
SMILES=C=C[C@@]1([C@]2([H])[C@](OC(C2=C)=O)([H])C3=C(OC=C3C)C1)C
INCHIKEY=VXZIFOKTSURLNL-YDHLFZDLSA-N
ADDUCT=[M+H]+
IONMODE=positive
PARENT_MASS=244.109944372
55.05023193359375 0.031354293712620836 
91.05626678466797 0.04180965965536723 
93.07294464111328 0.03397413202004797 
95.05107879638672 0.06551607166378427 
105.0728759765625 0.05506372215040214 
117.0727310180664 0.03714253603613377 
119.08831787109375 0.05103322796082456 
124.09082794189453 0.3559144054159653 
128.06488037109375 0.048686558030505894 
129.0738525390625 0.11093958453954916 
131.0886993408203 0.0630710180868735 
141.0722198486328 0.05351559450203054 
142.0808563232422 0.06069779823933634 
143.0900115966797 0.200565645105436 
145.0673370361328 0.050146226885715746 
145.10569763183594 0.08436629933639836 
153.0738983154297 0.04752728816828485 
155.09054565429688 0.10055772871346906 
156.09324645996094 0.2521254882451296 
157.06979370117188 0.28121413919285004 
157.10411071777344 0.09636670709358264 
159.08468627929688 0.07676197166892662 
160.09078979492188 0.060766951884566836 
166.08139038085938 0.09336191634173939 
167.08851623535156 0.04391986287878024 
168.09771728515625 0.05183584909592967 
171.08506774902344 0.11693370484068896 
171.12228393554688 0.40010149724235355 
172.09197998046875 0.04426015882157277 
172.1234893798828 0.047352527462427144 
173.10142517089844 0.10010625732805477 
181.10740661621094 0.21864604797141335 
183.1227569580078 0.05487360167944536 
184.09266662597656 0.0689829633777927 
185.0999755859375 0.05334796111157333 
189.06002807617188 0.04043078572720869 
199.11143493652344 0.9754440226734692 
200.1227264404297 0.13135284582652598 
201.13259887695312 0.05081154976602332 
203.07464599609375 0.03832082808919525 
217.12925720214844 0.12256160392294273 
227.1062469482422 0.24675231461035804 
228.1171417236328 0.03810254004067065 
245.11679077148438 1.0 
246.12232971191406 0.17533975351938827 
246.24771118164062 0.07334661017832318 
END IONS

BEGIN IONS
CHARGE=1+
PRECURSOR_MZ=884.5002112560001
COMPOUND_NAME=challenge_87
FORMULA=C45H73NO16
SMILES=C[C@H](CC1)CN[C@]21O[C@@]3([H])C[C@@]4([H])[C@]5([H])CC=C6C[C@@H](O[C@@]7([H])[C@H](O[C@@]8([H])[C@H](O)[C@H](O)[C@@H](O)[C@H](C)O8)[C@@H](O[C@@]9([H])[C@H](O)[C@@H](O)[C@H](O)[C@@H](CO)O9)[C@@H](O)[C@@H](CO)O7)CC[C@]6(C)[C@@]5([H])CC[C@]4(C)[C@@]3([H])[C@@H]2C
INCHIKEY=QCTMYNGDIBTNSK-XEAAVONHSA-N
ADDUCT=[M+H]+
IONMODE=positive
PARENT_MASS=883.492935256
67.05530548095703 0.02283615984102555 
69.03484344482422 0.03650295847594237 
70.0655288696289 0.07811547537170682 
71.0494155883789 0.15699517302478885 
73.02925872802734 0.01625879666350033 
75.04539489746094 0.01541259952230196 
75.6531753540039 0.011217631324173026 
79.05592346191406 0.01537018839481117 
81.03446197509766 0.018426517330854313 
81.07083129882812 0.025278112953111637 
83.05039978027344 0.025626868893371905 
85.02877044677734 0.3148710201776302 
87.04546356201172 0.01927249630781662 
91.04081726074219 0.016976326168313117 
93.0710220336914 0.01577341079599375 
95.08661651611328 0.012793903821269048 
97.02983093261719 0.026619031983608914 
98.2724609375 0.039531779013084675 
98.3850326538086 0.01904695671306274 
99.04605865478516 0.013204079327781658 
105.07127380371094 0.012883296265118359 
107.08715057373047 0.02378440576678733 
109.10283660888672 0.03865648157781781 
114.0927963256836 0.03754658017566641 
119.0875015258789 0.014737506480181567 
124.11339569091797 0.046307456296214224 
126.12747955322266 0.06366393294211278 
127.039794921875 0.027115956627936463 
129.05589294433594 0.04988551866900336 
131.08541870117188 0.01306296366233964 
133.10267639160156 0.034518933502865244 
145.1023406982422 0.02322955640651806 
147.06631469726562 0.012516800053688108 
147.1189727783203 0.03377807309239444 
157.1023406982422 0.05465387385366658 
159.11888122558594 0.025025582923578673 
171.1183319091797 0.012907988234107172 
253.19717407226562 0.04706212439156106 
396.3370361328125 0.017048052939086067 
476.9988708496094 0.012209814823322437 
866.4739990234375 0.08985862281897694 
867.5220947265625 0.026002361916395187 
884.498779296875 1.0 
885.10009765625 0.02599988188166006 
885.5004272460938 0.46223442515666163 
886.5004272460938 0.06534038575265366 
END IONS

BEGIN IONS
CHARGE=1+
PRECURSOR_MZ=331.081228788
COMPOUND_NAME=challenge_88
FORMULA=C17H14O7
SMILES=O=C1C=C(C2=CC(OC)=C(O)C(OC)=C2)OC3=CC(O)=CC(O)=C13
INCHIKEY=HRGUSFBJBOKSML-UHFFFAOYSA-N
ADDUCT=[M+H]+
IONMODE=positive
PARENT_MASS=330.073952788
178.53125 0.006828669197480777 
183.26296997070312 0.00720740552915266 
242.06298828125 0.011807980758085082 
258.0594787597656 0.01818754105328233 
259.0616455078125 0.008834376569684324 
270.0517883300781 0.10691212086086319 
271.0606994628906 0.011528612688845098 
273.0452575683594 0.014656543410223715 
286.0587158203125 0.022023154051234495 
287.0555725097656 0.03942221320659944 
301.0378723144531 0.008401737761292067 
302.04815673828125 0.012922274062053244 
315.04949951171875 0.32042894787682086 
316.05340576171875 0.09329500405703026 
317.06585693359375 0.014711265020671535 
330.07733154296875 0.010891912020401066 
330.95452880859375 0.03273663305127313 
330.99786376953125 0.04404629651095398 
331.0804443359375 1.0 
332.0841064453125 0.18606294965418646 
333.0961608886719 0.011608204860708628 
END IONS

BEGIN IONS
CHARGE=1+
PRECURSOR_MZ=369.13326435999994
COMPOUND_NAME=challenge_89
FORMULA=C21H20O6
SMILES=O=C1C(C2=CC=C(O)C=C2O)=CC3=C(OC)C(C/C=C(C)\C)=C(O)C=C3O1
INCHIKEY=NZYSZZDSYIBYLC-UHFFFAOYSA-N
ADDUCT=[M+H]+
IONMODE=positive
PARENT_MASS=368.12598835999995
60.31920623779297 0.005312391580848148 
69.93534851074219 0.005004617221108583 
73.0488052368164 0.007597943777320002 
79.65023040771484 0.004904998834866343 
83.9240493774414 0.004925576478571936 
92.41012573242188 0.010023142819181652 
104.22325134277344 0.006234053180555002 
107.08969116210938 0.005733273780854385 
119.03290557861328 0.006099663513514684 
119.61196899414062 0.00629904037816167 
136.55580139160156 0.00598866314664918 
225.0611114501953 0.009411604660837822 
225.53636169433594 0.0066603109943138014 
234.76181030273438 0.007482427976115193 
255.06906127929688 0.010745081722864513 
257.0905456542969 0.009714672736045683 
267.0714111328125 0.010232241538487527 
268.0401916503906 0.018777053353159375 
268.0896911621094 0.008833759005963405 
269.0404968261719 0.031271949125673305 
270.0578918457031 0.020306247964264616 
271.0662536621094 0.019713394175111358 
281.039794921875 0.026193609588400293 
283.0626220703125 0.03416406045614333 
284.0735778808594 0.008202734501556688 
285.0738830566406 0.0460937648890221 
286.09027099609375 0.02016704102180056 
293.0858459472656 0.007649894282528886 
295.0657958984375 0.01366076711273816 
296.0727233886719 0.006247482401717294 
297.0433044433594 0.009151986812766053 
298.0469055175781 0.06630966220652926 
299.0547790527344 0.042160355959160546 
307.1021423339844 0.010760623154844098 
310.9774169921875 0.012191291015736667 
311.05157470703125 0.07840082048798742 
312.0659484863281 0.01794913168305939 
313.0707702636719 0.12171067392370237 
314.08599853515625 0.018715661854390345 
319.108642578125 0.009989815096753738 
321.0742492675781 0.04133179812175257 
322.091064453125 0.009556572301307895 
325.0803527832031 0.015751318463513558 
335.1048583984375 0.007255419116768049 
336.1059875488281 0.025368616995012014 
337.1118469238281 0.010138818338987192 
339.0869140625 0.036326823564113535 
351.1218566894531 0.11209560333132935 
352.1276550292969 0.02709331258760159 
355.0757751464844 0.009054771650045826 
368.91766357421875 0.010169946546786397 
368.98370361328125 0.0229671151853732 
369.0333557128906 0.03923711574411759 
369.1322326660156 1.0 
369.27435302734375 0.011716401595150272 
369.3153991699219 0.017293321694268927 
370.1353454589844 0.21100789258940345 
371.1487121582031 0.018577924864472 
END IONS

BEGIN IONS
CHARGE=1+
PRECURSOR_MZ=229.085920244
COMPOUND_NAME=challenge_90
FORMULA=C14H12O3
SMILES=OC1=CC=C(/C=C/C2=CC(O)=CC(O)=C2)C=C1
INCHIKEY=LUKBXSAWLPMMSZ-OWOJBTEDSA-N
ADDUCT=[M+H]+
IONMODE=positive
PARENT_MASS=228.078644244
55.01959228515625 0.018844018794870642 
55.93629455566406 0.07345378833031212 
57.017784118652344 0.014497842681594784 
61.0118408203125 0.018432100184334117 
68.99925994873047 0.023250322310032902 
73.94669342041016 0.01842855102420737 
74.95491790771484 0.045725214856895395 
82.268310546875 0.013587282504381206 
91.05687713623047 0.15424904524506364 
92.05909729003906 0.014168608893108926 
97.97071075439453 0.02252724844540614 
105.92345428466797 0.01453539530329456 
105.93765258789062 0.053894116115927544 
107.03458404541016 0.029907742360108774 
107.05206298828125 0.43389556556206105 
108.05464172363281 0.029112578109298824 
110.04011535644531 0.015183281946638408 
111.04645538330078 0.030968015370147157 
113.96589660644531 0.02664626480833054 
114.97113800048828 0.017414704500631317 
118.94525146484375 0.03151974195630694 
119.05255126953125 0.18339180085989668 
120.05992889404297 0.057331593432165 
121.03162384033203 0.03859896811409853 
123.04618072509766 0.01895519623584101 
128.95440673828125 0.12292177385665196 
135.02284240722656 0.0244384152358099 
135.04383850097656 0.4429707371438927 
135.9490203857422 0.0421790445117763 
136.053466796875 0.05396352534310194 
141.07276916503906 0.03984419094456792 
141.96104431152344 0.02218866628487991 
145.0679931640625 0.03390786185878713 
145.93157958984375 0.02985987113400789 
146.96311950683594 0.02817875164434132 
153.07272338867188 0.027159540873856306 
155.0883026123047 0.02406696283739242 
157.06893920898438 0.05337602360864282 
159.97042846679688 0.018306228448882467 
163.93972778320312 0.24120135428543493 
165.07455444335938 0.10083368382575512 
171.0479278564453 0.02403731191920309 
173.0623016357422 0.02348379339295758 
181.0707550048828 0.05763736129264979 
181.9508056640625 0.06731249138942891 
182.07522583007812 0.03903600089031453 
183.0792694091797 0.09937379853214144 
185.06478881835938 0.04158390436747918 
186.07020568847656 0.023528564890621675 
186.96173095703125 0.10859019582475568 
193.0708465576172 0.05373612448132883 
199.0811004638672 0.050794248798964214 
204.9706573486328 0.05077485958288048 
209.06373596191406 0.02302135325957335 
210.07249450683594 0.061317030209710306 
211.07479858398438 0.21129139370024694 
212.0862579345703 0.0322461740208145 
213.06080627441406 0.04518510984125934 
227.0701446533203 0.19694291086435567 
228.0773468017578 0.841794428201293 
228.23934936523438 0.04382678453622908 
229.03746032714844 0.040809570214608765 
229.0848388671875 1.0 
230.0968475341797 0.13152821711922263 
230.15780639648438 0.017911887825430208 
END IONS

BEGIN IONS
CHARGE=1+
PRECURSOR_MZ=355.1023581559999
COMPOUND_NAME=challenge_92
FORMULA=C16H18O9
SMILES=O[C@@H]1[C@H](O)C[C@@](OC(/C=C/C2=CC(O)=C(O)C=C2)=O)(C(O)=O)C[C@H]1O
INCHIKEY=GWTUHAXUUFROTF-JUHZACGLSA-N
ADDUCT=[M+H]+
IONMODE=positive
PARENT_MASS=354.09508215599993
73.04700469970703 0.02043349446410675 
84.96034240722656 0.01343304073944085 
89.03907012939453 0.019347187617034044 
91.05719757080078 0.017655606532335298 
107.04914093017578 0.01394550108839465 
117.0329818725586 0.03556331566653574 
123.04374694824219 0.027984137195459707 
124.04788970947266 0.009111469012781318 
134.03500366210938 0.01652829019512642 
135.04380798339844 0.11676737596177245 
145.02828979492188 0.08498269359992561 
163.0386962890625 1.0 
164.04209899902344 0.10416294119272783 
218.86854553222656 0.013296028933157766 
248.90200805664062 0.009430157142100964 
266.8709411621094 0.009676472084796882 
285.0115661621094 0.011773748315412414 
287.1724548339844 0.01723961784337188 
293.8973388671875 0.016385466942266835 
308.90081787109375 0.015279754145361932 
353.26080322265625 0.014120462043378393 
353.86480712890625 0.028628878401350387 
354.8805236816406 0.01241472196195139 
355.0721740722656 0.027632616039803343 
355.2818908691406 0.24990089800170556 
355.8605651855469 0.010813288746509912 
356.28570556640625 0.046699514807156 
END IONS

BEGIN IONS
CHARGE=1+
PRECURSOR_MZ=854.3382313120003
COMPOUND_NAME=challenge_95
FORMULA=C47H51NO14
SMILES=O[C@@H]1C[C@]2([H])[C@](CO2)(OC(C)=O)[C@]3([H])[C@]1(C)C([C@H](OC(C)=O)C4=C(C)[C@@H](OC([C@@H]([C@H](C5=CC=CC=C5)NC(C6=CC=CC=C6)=O)O)=O)C[C@]([C@H]3OC(C7=CC=CC=C7)=O)(O)C4(C)C)=O
INCHIKEY=RCINICONZNJXQF-LYTKHFMESA-N
ADDUCT=[M+H]+
IONMODE=positive
PARENT_MASS=853.3309553120002
67.05548858642578 0.0159225145534834 
69.03478240966797 0.016762832115111495 
77.04078674316406 0.015633184176526087 
79.05658721923828 0.048871621529824945 
81.07160186767578 0.01792796411680872 
91.05689239501953 0.07921270951632257 
93.07276153564453 0.036075130831737176 
95.0517578125 0.07997387828395829 
95.08775329589844 0.020038029034995165 
105.019287109375 0.06478593436299548 
105.03646087646484 1.0 
105.0728759765625 0.07293555664666992 
106.0372314453125 0.07531808709959605 
107.08824157714844 0.03429065052585887 
109.06649017333984 0.015578428263652407 
109.1028060913086 0.018113545801971123 
118.06857299804688 0.05952648252857785 
119.05192565917969 0.02966473641035821 
119.08860778808594 0.03505209648532548 
121.06813049316406 0.03415070023007343 
121.10398864746094 0.030520245136946518 
122.0634765625 0.19003836840200636 
123.08309173583984 0.015325097737137822 
129.07208251953125 0.015128321361640377 
131.08863830566406 0.029204759373911933 
133.06881713867188 0.06401699018906531 
133.10467529296875 0.04205373406448726 
135.08277893066406 0.015284592642253726 
143.08935546875 0.02904586529717715 
145.1046142578125 0.021412407535822728 
147.08322143554688 0.023313720689665626 
149.06239318847656 0.020154993461360498 
149.1005859375 0.04051812290014908 
155.08763122558594 0.020055920188738585 
157.1048583984375 0.023923958505379404 
159.08328247070312 0.028697356218702588 
161.09906005859375 0.022343117704381184 
169.105712890625 0.036681380944719164 
171.08480834960938 0.013787997982492592 
171.1203155517578 0.013760292834432575 
173.10076904296875 0.01757703399576052 
179.09097290039062 0.016463850901054504 
180.0955810546875 0.022674654923538845 
181.1045379638672 0.020699466638005266 
183.12026977539062 0.015935305728414097 
187.1166229248047 0.017573279625392714 
192.09739685058594 0.018117086138140396 
193.10633850097656 0.04014866127714052 
194.11172485351562 0.01512486172689023 
195.0833282470703 0.013988796271106017 
195.12025451660156 0.027066862992400763 
197.09884643554688 0.018938031850422067 
206.11227416992188 0.017411478543190893 
207.12083435058594 0.02044040631073308 
209.0966339111328 0.019372461624580478 
209.1360626220703 0.0189076600467737 
211.1141357421875 0.030027559464454717 
213.09446716308594 0.015370762459709642 
220.12998962402344 0.02558531125260167 
221.13893127441406 0.023420395685093014 
223.11770629882812 0.03765257690999627 
233.140869140625 0.016791661819903176 
235.15553283691406 0.02185596007909918 
237.13047790527344 0.025711084414301942 
239.1508026123047 0.03395889050060929 
240.10107421875 0.13473289991665438 
241.1186065673828 0.012477964828384713 
248.12481689453125 0.017974276205112185 
249.13372802734375 0.026988435248044444 
251.14988708496094 0.022540697585312488 
253.1649169921875 0.029517547548153344 
255.14151000976562 0.018173217483896487 
263.1511535644531 0.05488949126611348 
267.1462707519531 0.020568186481639317 
268.1053771972656 0.0754874407820004 
281.1518249511719 0.07397053480311155 
282.1635437011719 0.017158430471643234 
283.1329345703125 0.01585390080344368 
286.1070556640625 0.24278807206639536 
287.1206359863281 0.036947828960598283 
291.1455078125 0.03906629033513068 
299.1693115234375 0.01866429965427793 
309.1491394042969 0.11525707205483048 
327.15887451171875 0.14947860707834815 
328.17315673828125 0.02114692793697306 
345.1808166503906 0.04376216907225199 
369.17779541015625 0.04110760817049799 
387.19256591796875 0.046049475359372545 
431.20269775390625 0.02454450154143921 
449.209228515625 0.034943272376019324 
491.21209716796875 0.016195227455616464 
509.21734619140625 0.28658525151951647 
510.2284851074219 0.07068109583713168 
551.2402954101562 0.01820636471461115 
END IONS

BEGIN IONS
CHARGE=1+
PRECURSOR_MZ=345.096878852
COMPOUND_NAME=challenge_96
FORMULA=C18H16O7
SMILES=O=C1C=C(C2=CC=C(OC)C(OC)=C2)OC3=CC(O)=C(OC)C(O)=C13
INCHIKEY=DRRWBCNQOKKKOL-UHFFFAOYSA-N
ADDUCT=[M+H]+
IONMODE=positive
PARENT_MASS=344.089602852
66.25481414794922 0.007783402751222035 
70.7236557006836 0.008924140717186576 
162.0703582763672 0.016727573185138078 
163.07723999023438 0.009389779332778295 
165.0587158203125 0.015943206351277037 
168.0055389404297 0.07644178464563144 
169.01222229003906 0.12268550127770907 
186.01815795898438 0.011546765792073373 
269.0520935058594 0.012323448301976726 
286.0512390136719 0.01453791010973423 
287.0621643066406 0.02590422084713107 
314.0504455566406 0.025666901646275508 
315.0589294433594 0.028614168191242892 
329.063720703125 0.04199991211789628 
329.94580078125 0.015819526107488414 
329.989990234375 0.023938025535694903 
330.0727844238281 0.6626812803638743 
331.07568359375 0.11005047753643855 
332.0921630859375 0.015521226636915552 
344.9596252441406 0.034839700446142825 
345.0963439941406 1.0 
346.0990295410156 0.18784717480834365 
347.11114501953125 0.016526067013570293 
END IONS

BEGIN IONS
CHARGE=1+
PRECURSOR_MZ=579.17083164
COMPOUND_NAME=challenge_97
FORMULA=C27H30O14
SMILES=OC1=C([C@H]2[C@@H]([C@@H]([C@@H](O)[C@H](C)O2)O)O)C(O)=C(C(C=C(C3=CC=C(O)C=C3)O4)=O)C4=C1[C@@H]5O[C@@H]([C@@H](O)[C@H](O)[C@H]5O)CO
INCHIKEY=TWBWSPDILHVKEV-RSPRXDBDSA-N
ADDUCT=[M+H]+
IONMODE=positive
PARENT_MASS=578.1635556399999
52.60030746459961 0.03513594474572674 
60.3485107421875 0.040654843078123934 
64.35061645507812 0.051668607898081094 
69.03585052490234 0.23519725995523622 
73.1094970703125 0.0337396854317779 
115.19966888427734 0.030676360091958024 
120.23883819580078 0.03155017896672324 
121.02896881103516 0.14945548997430688 
202.68260192871094 0.035112011036628164 
203.03677368164062 0.03473926411451183 
230.89186096191406 0.032943316194847076 
257.0527038574219 0.041746623710660714 
272.13238525390625 0.030988529876608596 
294.0509948730469 0.16504088763930802 
295.0587463378906 0.2987732065004529 
296.07000732421875 0.05745199345727661 
307.0594482421875 0.28915720041724213 
308.0773010253906 0.1424483700119384 
309.0880432128906 0.11004004193746349 
313.0787353515625 0.03810709780468801 
319.06610107421875 0.05731463993878813 
321.0862731933594 0.10022183058810091 
322.0892333984375 0.03952499490789628 
325.06915283203125 0.2839357035819417 
326.08221435546875 0.04715303109984547 
333.0811462402344 0.06567984441276999 
334.0935363769531 0.03250011694128485 
335.0984802246094 0.06975540338115688 
337.06982421875 0.49362250980791395 
338.083984375 0.09314633512038362 
343.10406494140625 0.05341099196225395 
347.0967712402344 0.09157078637637135 
349.0868225097656 0.12864163011878751 
351.0936584472656 0.07549564116651643 
355.0938415527344 0.10559692126552343 
359.0984191894531 0.06353094560347874 
361.0913391113281 0.03803657472422123 
363.0998229980469 0.11838534083208443 
367.0931701660156 0.04840307500988295 
375.08416748046875 0.19405130912527627 
376.095703125 0.05187930304673949 
377.1128845214844 0.08813327859397906 
379.07843017578125 0.25020247913332944 
380.089111328125 0.05322484900607028 
387.0813293457031 0.22071074521157846 
388.0970458984375 0.05827016252154696 
391.0971374511719 0.11573088321288412 
393.1024475097656 0.0679283669723779 
403.0946960449219 0.05679599484224119 
405.0959167480469 0.4112183591207885 
406.1126403808594 0.08710000511949044 
409.1038818359375 0.04483945595664398 
417.10565185546875 0.0392544187008486 
421.10137939453125 0.05398060374055825 
423.1089782714844 0.2506360473911449 
424.11834716796875 0.0652832527883878 
429.10968017578125 0.05857724522337301 
439.1084289550781 0.03853487377169658 
441.1159362792969 0.36859418281284084 
442.1259460449219 0.06993613289612934 
447.1195983886719 0.052839695900807206 
457.1303405761719 0.08812496216068495 
459.14166259765625 0.10642196439595235 
475.1404113769531 0.1404806799851805 
481.12774658203125 0.08206907419529243 
489.1280822753906 0.07573033164438836 
499.14373779296875 0.04321190440005232 
507.1388244628906 0.05745483711147103 
525.1375732421875 0.39083292794905106 
526.16015625 0.09944317142865698 
543.150146484375 0.6351523201771679 
544.1519775390625 0.1813617099653109 
561.1602783203125 0.5338378964839033 
562.1859130859375 0.16059806822126335 
563.1754760742188 0.04259469450627554 
579.1716918945312 1.0 
580.1678466796875 0.33316135691765486 
END IONS

BEGIN IONS
CHARGE=1+
PRECURSOR_MZ=342.169984216
COMPOUND_NAME=challenge_99
FORMULA=C20H23NO4
SMILES=COC1=C2C3=C(C=C1OC)CCN(C)[C@@]3([H])CC4=CC=C(OC)C(O)=C24
INCHIKEY=QELDJEKNFOQJOY-ZDUSSCGKSA-N
ADDUCT=[M+H]+
IONMODE=positive
PARENT_MASS=341.162708216
65.39347839355469 0.016633014195051553 
74.56949615478516 0.016926777431234073 
105.82113647460938 0.018942587810852313 
149.76806640625 0.018970544709448825 
172.28184509277344 0.019051210061893295 
191.09048461914062 0.04311723576280761 
208.0903778076172 0.025233496889120008 
219.08424377441406 0.03884264821036253 
235.08091735839844 0.04066202230485304 
236.08197021484375 0.17408786534314896 
237.09608459472656 0.052583362967046805 
247.08303833007812 0.08156864058937591 
248.082275390625 0.20474554853229213 
249.0972137451172 0.05388871547562393 
250.10118103027344 0.027189675508951957 
251.10536193847656 0.09138485727925931 
253.0916748046875 0.02685567460787338 
263.0751037597656 0.025988034123331054 
264.07733154296875 0.2130759294930052 
265.084228515625 0.19454605173348738 
266.09283447265625 0.02676873850790136 
279.10076904296875 0.5195079081476811 
280.10614013671875 0.24401564754346258 
281.0943908691406 0.09534223663013582 
296.1033630371094 0.16304655346399569 
297.1139221191406 0.02090691972820951 
302.23858642578125 0.020909188215687175 
311.1275634765625 0.27871480910106333 
312.1417236328125 0.05728782889650964 
342.033935546875 0.029112439602846648 
342.168701171875 1.0 
343.1722717285156 0.24312783814298244 
END IONS

BEGIN IONS
CHARGE=1+
PRECURSOR_MZ=286.10738396
COMPOUND_NAME=challenge_100
FORMULA=C16H15NO4
SMILES=O=C(C1=CC=CC=C1)N[C@](C2=CC=CC=C2)([H])[C@@H](O)C(O)=O
INCHIKEY=HYJVYOWKYPNSTK-UONOGXRCSA-N
ADDUCT=[M+H]+
IONMODE=positive
PARENT_MASS=285.10010796
53.039852142333984 0.01262672706444508 
59.94286346435547 0.007634594128264602 
67.21723937988281 0.008537402634648644 
77.03250122070312 0.009934669772102642 
77.04137420654297 0.036851617325477606 
79.0470962524414 0.012752640826369682 
79.05673217773438 0.030899821473933733 
91.0435562133789 0.01479627370864427 
91.05711364746094 0.14714124747917307 
92.06072998046875 0.008481360230711674 
95.05194091796875 0.022490686442724023 
105.01115417480469 0.03569226225928235 
105.01924896240234 0.07922302652024471 
105.03681945800781 1.0 
105.0553970336914 0.020178050670291024 
106.0401382446289 0.07355504535256839 
106.06751251220703 0.011980167779141687 
118.0684585571289 0.029564229957821236 
119.04979705810547 0.04108957003375035 
122.04186248779297 0.03504141048394134 
122.06379699707031 0.5290583886595294 
123.04883575439453 0.015048781327262659 
123.06741333007812 0.037257948541119086 
136.0791015625 0.020848980919183305 
196.4775848388672 0.008320706492739555 
240.1095428466797 0.028598571071802022 
269.08807373046875 0.010905547763767091 
286.1056213378906 0.08295177097456383 
287.1186218261719 0.019463298098672137 
END IONS

BEGIN IONS
CHARGE=1+
PRECURSOR_MZ=377.15947910799997
COMPOUND_NAME=challenge_101
FORMULA=C20H24O7
SMILES=C[C@@]1([C@@H]2O)[C@]([C@@]3([C@@H]4O)O)([H])[C@@]([C@](C5)([H])C4=C)(CO3)[C@@](OC5=O)([H])C[C@@]1([H])C(C)=CC2=O
INCHIKEY=WBBVXGHSWZIJST-RLQYZCPESA-N
ADDUCT=[M+H]+
IONMODE=positive
PARENT_MASS=376.152203108
61.96331787109375 0.01692829622157693 
69.03500366210938 0.017742528807351977 
73.53953552246094 0.018728390438769994 
74.5058364868164 0.016447164163189875 
86.10167694091797 0.01662428100293608 
91.05682373046875 0.02538560431149641 
106.91763305664062 0.020810852241802305 
134.7801055908203 0.017881311690351436 
159.0852508544922 0.021912278242356135 
185.10061645507812 0.021895711963906998 
192.09779357910156 0.019748044877314325 
207.12144470214844 0.03226707003050884 
210.10760498046875 0.023459566934569798 
221.1385955810547 0.02618223822755665 
222.10447692871094 0.018030998134259762 
223.11859130859375 0.07084827248083087 
224.12486267089844 0.020999687236894573 
225.13385009765625 0.045034388712968505 
235.1173553466797 0.03435164977907787 
237.13536071777344 0.056630543536371834 
249.13327026367188 0.02840992249698144 
253.13116455078125 0.04783121896858227 
265.131103515625 0.05135964420545467 
267.144287109375 0.03461412754116422 
281.1202697753906 0.019797604802873497 
283.1378173828125 0.04325878549189678 
295.13665771484375 0.0431695059415798 
313.1560974121094 0.053431588308101005 
341.1421813964844 0.03552920005852184 
359.14788818359375 1.0 
360.152099609375 0.21849724935296164 
361.15203857421875 0.019433832651255405 
377.1587829589844 0.09181801865608533 
378.1751708984375 0.02553429266285221 
END IONS

BEGIN IONS
CHARGE=1+
PRECURSOR_MZ=274.143769468
COMPOUND_NAME=challenge_102
FORMULA=C16H19NO3
SMILES=O=C(NCC(C)C)/C=C/C=C/C1=CC=C(OCO2)C2=C1
INCHIKEY=WHAAPCGHVWVUEX-GGWOSOGESA-N
ADDUCT=[M+H]+
IONMODE=positive
PARENT_MASS=273.136493468
57.0716552734375 0.06439486208536158 
76.33802032470703 0.01970977960264591 
115.05411529541016 0.14505376900161504 
117.07145690917969 0.025419369065792834 
135.02281188964844 0.03553412570002584 
135.04379272460938 0.7879587697892183 
136.04954528808594 0.041425425844864444 
137.49237060546875 0.022628605934837613 
143.04945373535156 0.14570247270890585 
145.06822204589844 0.0515764446673043 
159.04727172851562 0.03434977864875049 
171.04327392578125 0.10199032472281297 
173.06439208984375 0.07046905614423776 
201.05386352539062 0.8264926361831904 
202.05813598632812 0.1069403566837917 
274.0816955566406 0.04200702337482352 
274.1427307128906 1.0 
275.14508056640625 0.1734569827885835 
END IONS

BEGIN IONS
CHARGE=1+
PRECURSOR_MZ=373.12817898
COMPOUND_NAME=challenge_104
FORMULA=C20H20O7
SMILES=O=C1C=C(C2=CC(OC)=C(OC)C(OC)=C2)OC3=CC(OC)=CC(OC)=C13
INCHIKEY=GIKVSFNAEBQLGB-UHFFFAOYSA-N
ADDUCT=[M+H]+
IONMODE=positive
PARENT_MASS=372.12090298
51.73817443847656 0.007682869451654038 
94.06163787841797 0.008013669963026456 
130.47213745117188 0.009013160422077216 
163.74887084960938 0.009339541066977841 
167.03628540039062 0.012540644689553862 
181.05567932128906 0.010553531844070306 
219.5686492919922 0.009315098151916562 
233.96710205078125 0.009324683177178765 
269.0887145996094 0.021516310933087365 
283.0962829589844 0.08368215110306786 
284.1048583984375 0.0489898314202864 
311.09967041015625 0.02017607880088265 
312.0988464355469 0.15128920853955813 
313.1120300292969 0.029419043191079818 
314.0863952636719 0.019159891592609557 
315.0967712402344 0.03172343672514756 
327.089111328125 0.050633968288006814 
328.0683288574219 0.01603730860390107 
329.1130676269531 0.032619120857457745 
339.0980224609375 0.026947339393216075 
340.1047668457031 0.024409424077341948 
343.0804443359375 0.10139186265066351 
344.0954284667969 0.02557935062535623 
357.09661865234375 0.0596441090183163 
358.102294921875 0.05585753975697407 
372.9729919433594 0.029567060761311638 
373.1273498535156 1.0 
373.26104736328125 0.011496636379412433 
374.1292724609375 0.20153243924754383 
375.1471252441406 0.0299910408944977 
END IONS

BEGIN IONS
CHARGE=1+
PRECURSOR_MZ=609.295913
COMPOUND_NAME=challenge_105
FORMULA=C37H40N2O6
SMILES=COC1=C(OC2=CC([C@]3([H])CC(C=C4)=CC=C4O5)=C(CCN3C)C=C2OC)C([C@@]6([H])CC7=CC=C(O)C5=C7)=C(CCN6C)C=C1OC
INCHIKEY=DFOCUWZXJBAUSQ-URLMMPGGSA-N
ADDUCT=[M+H]+
IONMODE=positive
PARENT_MASS=608.288637
58.06685256958008 0.027998923839358217 
67.69725799560547 0.04198297940700772 
67.80912017822266 0.01529057418705581 
119.05152893066406 0.013529772169889669 
146.10049438476562 0.018904786732439584 
152.31695556640625 0.01544585343777893 
162.09402465820312 0.019997071367662256 
174.09127807617188 0.11600236272456999 
175.10194396972656 0.026490939682154196 
176.0784149169922 0.015341539834852556 
176.1114959716797 0.04646072101478454 
179.8028564453125 0.012227051479230002 
190.0903778076172 0.024108946931813605 
192.1057891845703 0.023880854931521672 
199.07850646972656 0.028283463743523793 
206.08255004882812 0.016757079326076126 
213.09677124023438 0.018858507053674492 
222.1179962158203 0.027312088578472823 
225.09970092773438 0.012293462801873403 
315.45050048828125 0.011757844253174768 
381.177978515625 0.07949960771557713 
382.1943054199219 0.03853921488902367 
535.2244873046875 0.016333081051246753 
563.2434692382812 0.013380429026090218 
566.2754516601562 0.03594399744013704 
567.2737426757812 0.015372812943561376 
578.2594604492188 0.06149593118947432 
579.2745361328125 0.02475372480141453 
607.3018188476562 0.04328290653920621 
608.3013916015625 0.05173933077598703 
609.2947387695312 1.0 
610.2980346679688 0.38260498038682744 
611.302734375 0.0665536253644963 
END IONS

BEGIN IONS
CHARGE=1+
PRECURSOR_MZ=515.3731007
COMPOUND_NAME=challenge_106
FORMULA=C32H50O5
SMILES=CC1(C)[C@@H](OC(C)=O)CC[C@]2(C)C3=C([C@@]4(C[C@@H](O)[C@@H]([C@]4(CC3)C)[C@H](C(O)=O)CC/C=C(C)\C)C)CC[C@@]12[H]
INCHIKEY=SRDNLMOBFKJOSD-KOCSMGCBSA-N
ADDUCT=[M+H]+
IONMODE=positive
PARENT_MASS=514.3658247
55.05596923828125 0.015984074534113456 
57.05462646484375 0.04334860509925294 
57.060848236083984 0.01653234582570766 
57.071781158447266 0.08968658115022288 
57.16646957397461 0.010973223889829178 
57.239585876464844 0.009145524613421612 
58.06821823120117 0.008657523138352458 
58.075069427490234 0.021079967932202518 
67.05561828613281 0.011331744474671007 
69.07125854492188 0.010561403337937557 
70.06745147705078 0.07769289512919139 
71.0877456665039 0.05008408515473302 
72.09078216552734 0.009546499707514785 
81.07191467285156 0.018830090746014563 
83.08802795410156 0.012640617307165262 
85.10357666015625 0.02754605621138322 
88.06476593017578 0.01710233247183722 
88.07837677001953 0.1062098017478555 
89.0813980102539 0.01730905330590843 
95.08794403076172 0.018812181077284048 
102.09428405761719 0.0692335032169029 
103.09708404541016 0.016238627801614735 
121.10443115234375 0.008007608265149057 
123.12029266357422 0.008977337875558055 
184.06082153320312 0.008974217158889335 
219.86801147460938 0.010183055306555961 
228.23855590820312 0.011879085050025747 
256.2630615234375 0.2426233508169861 
257.2659912109375 0.28477786938336713 
258.2688903808594 0.041417508068542684 
274.28094482421875 0.012081169274384674 
275.2819519042969 0.019318240891292648 
283.2620544433594 0.21982255983825202 
284.2005615234375 0.009817817407936238 
284.2658386230469 0.2796547510078401 
285.2682189941406 0.052650363773055806 
437.35345458984375 0.031818379107066794 
438.3687744140625 0.011184154331049122 
473.1395568847656 0.02467353597072854 
497.3735046386719 0.011699883818372763 
498.1910705566406 0.012138202968142747 
499.1742248535156 0.12652353428498486 
513.2557373046875 0.022572534009009517 
513.5061645507812 1.0 
514.1869506835938 0.017295116322395523 
514.508544921875 0.2807388405941673 
515.1658935546875 0.15599893606982246 
515.5315551757812 0.0351602192909206 
516.173828125 0.08613057983325736 
517.2028198242188 0.04271472420625369 
517.3612670898438 0.014434614608585092 
END IONS

BEGIN IONS
CHARGE=1+
PRECURSOR_MZ=499.3418005719999
COMPOUND_NAME=challenge_108
FORMULA=C31H46O5
SMILES=C[C@]12[C@@]([C@]([C@H](C(O)=O)CCC(C(C)C)=C)([H])[C@H](O)C1)(CC=C3C2=CC[C@@H](C(C)=C)[C@]3(C)CCC(O)=O)C
INCHIKEY=KVAQLXUMUVEKGR-SMFZDKLCSA-N
ADDUCT=[M+H]+
IONMODE=positive
PARENT_MASS=498.3345245719999
55.05584716796875 0.2223617556620868 
57.071449279785156 0.12061215515425122 
69.07158660888672 0.1394993776249764 
81.07102966308594 0.12512374968173032 
83.08749389648438 0.12100394076191348 
93.07188415527344 0.1031913852293721 
95.08812713623047 0.24940499565524687 
97.10324096679688 0.1326815382513106 
99.04718017578125 0.07456633383236924 
105.07271575927734 0.14034941682320984 
107.08815002441406 0.1911972270217848 
109.1031723022461 0.1579452051326318 
119.08875274658203 0.1970959504464808 
121.06922912597656 0.06679656363179895 
121.10368347167969 0.14406871573148242 
131.08749389648438 0.09842267738748786 
133.1037139892578 0.10154727987114431 
143.0880126953125 0.19946578935429762 
145.1042022705078 0.17733394397317837 
149.10020446777344 0.0766485411188682 
157.10507202148438 0.2422542005267624 
159.12120056152344 0.29839544869403883 
161.0626220703125 0.10933115024798862 
169.1049041748047 0.24535897637493012 
171.12086486816406 0.2032591772688702 
172.12460327148438 0.10193982672581196 
181.1074981689453 0.1110396023615148 
183.12139892578125 0.26230847453011213 
185.09974670410156 0.08625431507305337 
185.13427734375 0.1474261400520686 
193.091552734375 0.10191771634930706 
195.12054443359375 0.13736466140177975 
197.1384735107422 0.2229396533325615 
207.12278747558594 0.09073313321261496 
209.13755798339844 0.3112064659944291 
211.115234375 0.07644751203608495 
211.1486358642578 0.33802634414153543 
219.1414794921875 0.10169909305202844 
223.14749145507812 0.402673800560401 
224.15597534179688 0.09209455077839132 
225.12950134277344 0.10195495757921126 
225.1732940673828 0.10417580590739993 
237.16795349121094 0.10705829762999344 
245.1574249267578 0.08696472959582609 
265.1625671386719 0.22460863179519014 
267.18170166015625 0.1677897882597442 
283.1728515625 0.13889920706459116 
289.20263671875 0.0799474007400621 
307.205322265625 0.3665969535476471 
325.2156066894531 0.844411855089499 
326.2294616699219 0.3104609913427227 
327.2384948730469 0.08500878667217639 
367.2760314941406 0.12965937908657066 
421.28253173828125 0.10214118083540649 
425.31597900390625 0.33593033176889375 
426.31585693359375 0.14583092556892865 
445.31976318359375 0.1211001059313698 
453.3394470214844 0.10835420518662048 
463.3199157714844 0.6888509440044494 
464.3269958496094 0.17803822575322226 
481.3308410644531 1.0 
482.32843017578125 0.424770183805741 
483.18951416015625 0.12114284695705452 
484.1641540527344 0.11633200537642245 
499.1902770996094 0.875730891211884 
499.3537292480469 0.27119569973790525 
500.1896057128906 0.28571290251747977 
500.3388671875 0.10811798767484647 
501.1825256347656 0.4382944125701485 
END IONS

BEGIN IONS
CHARGE=1+
PRECURSOR_MZ=455.2792003159999
COMPOUND_NAME=challenge_109
FORMULA=C28H38O5
SMILES=C[C@@]12[C@]3([H])[C@@]([C@@]4([H])[C@](CC3)([C@@](CC4)([H])[C@@H]([C@@]5([H])CC(C)=C(C(O5)=O)C)C)C)([H])[C@H]6[C@@H]([C@]1(CC=CC2=O)O)O6
INCHIKEY=ZTEVDTFJUUJBLP-MBMSZCMESA-N
ADDUCT=[M+H]+
IONMODE=positive
PARENT_MASS=454.2719243159999
55.05618667602539 0.09000802877626458 
67.0562515258789 0.17672625217461224 
69.03488159179688 0.0929424161375139 
69.07150268554688 0.10032717964053783 
81.07209014892578 0.23139012679775817 
93.07231140136719 0.10501280518584684 
95.08809661865234 0.23470022586861036 
105.07202911376953 0.11666002177818521 
107.08844757080078 0.2903870024522154 
109.10124969482422 0.5128366343511206 
110.10729217529297 0.07189239435395288 
119.08660888671875 0.08615728614229914 
121.06845092773438 0.12544722921781848 
121.10418701171875 0.13101387366701925 
123.1195297241211 0.1120156267963374 
133.10389709472656 0.12613931710436918 
135.08409118652344 0.08858787345674816 
135.11953735351562 0.13121734817764175 
137.09791564941406 0.12475563091420994 
143.0887908935547 0.16957189024402888 
145.10345458984375 0.11247847466997694 
155.1096954345703 0.1775039978767076 
161.10267639160156 0.08686311115022655 
163.07891845703125 0.17966421061143956 
169.10418701171875 0.10582360253636987 
171.0796661376953 0.5815354119757901 
173.1004638671875 0.09719865824322896 
181.1072998046875 0.10767439885166497 
183.1222381591797 0.08984901991638768 
185.10047912597656 0.08690242178058129 
191.07591247558594 0.6058383092239653 
192.07826232910156 0.10705406846496818 
193.1053009033203 0.11990838539999925 
195.12168884277344 0.1302295905926964 
197.1012725830078 0.22297425362024506 
205.10328674316406 0.08270341288076977 
208.09193420410156 0.1444697344433004 
211.11741638183594 0.21442757540018895 
215.0735321044922 0.11476177431616398 
220.17276000976562 0.10867183289946684 
221.09469604492188 0.3725604465979438 
222.1045684814453 0.09189764613897228 
223.11900329589844 0.23341312191337155 
237.13108825683594 0.1610586380593562 
246.1076202392578 0.08322831299241004 
261.125244140625 0.39027624535116995 
263.1515197753906 0.3078674558052518 
265.16326904296875 0.1935284699584611 
276.1549377441406 0.07770089277657423 
279.1452941894531 0.1306151131604733 
289.1650695800781 0.1262339122085244 
290.93804931640625 0.09199373879095055 
291.1836242675781 0.21711811205758694 
299.1686096191406 0.08189937369478148 
305.19757080078125 0.09091466918746204 
351.1336669921875 0.0805729303101913 
373.25982666015625 0.0913864735490432 
401.25982666015625 0.33057880530549705 
402.2649230957031 0.10693952525583685 
419.27093505859375 0.2828196437111017 
436.1766662597656 0.08722797523777795 
437.28662109375 0.3226914129148678 
453.6749572753906 0.11151872890905484 
454.1650085449219 0.10984157134390786 
455.275634765625 1.0 
456.17205810546875 0.11350881637122352 
456.2987976074219 0.2666125667915929 
END IONS

BEGIN IONS
CHARGE=1+
PRECURSOR_MZ=399.1074435359999
COMPOUND_NAME=challenge_110
FORMULA=C21H18O8
SMILES=CC(OC1=C2C(O[C@H](C3=CC=C(OC(C)=O)C=C3)CC2=O)=CC(OC(C)=O)=C1)=O
INCHIKEY=HQZXCNZZVRAEPO-SFHVURJKSA-N
ADDUCT=[M+H]+
IONMODE=positive
PARENT_MASS=398.1001675359999
81.69448852539062 0.0019682574088414535 
90.40242004394531 0.0019787104569645914 
99.55594635009766 0.01946879910330222 
99.80718994140625 0.0038159133045194897 
147.04795837402344 0.003270794831813766 
153.02333068847656 0.01295652573085808 
171.40150451660156 0.0021529814774503457 
187.284912109375 0.002559199504844812 
224.98733520507812 0.0022622839346131576 
273.0754089355469 0.010445749677550874 
313.1891174316406 0.003618366338710365 
315.08624267578125 0.01100973341067793 
357.10675048828125 0.005954599211182769 
382.22320556640625 0.0035257386546312577 
383.2250671386719 0.0037331758248227986 
397.93194580078125 0.003410584749963896 
398.0073547363281 0.011456155610389434 
398.07806396484375 0.02662041601571193 
398.1257629394531 0.032884429265985976 
398.24053955078125 1.0 
398.38494873046875 0.012478670844796052 
399.0753479003906 0.007874945761596855 
399.2435607910156 0.24771118868419537 
400.2471923828125 0.03268906655203478 
END IONS

BEGIN IONS
CHARGE=1+
PRECURSOR_MZ=343.19038531199993
COMPOUND_NAME=challenge_111
FORMULA=C21H26O4
SMILES=O=C(C1=C(O)C=CC=C1O)CCCCCCCCC2=CC=C(O)C=C2
INCHIKEY=KOAPDMKKECXPHX-UHFFFAOYSA-N
ADDUCT=[M+H]+
IONMODE=positive
PARENT_MASS=342.18310931199994
51.79240417480469 0.02122495325440651 
55.77138900756836 0.021091676803297207 
66.4079360961914 0.02479067886079728 
82.77076721191406 0.02262424851933137 
106.64323425292969 0.027723802877085573 
107.03450012207031 0.06056715944805716 
107.05210876464844 0.9598732521489892 
108.05559539794922 0.06852093054790374 
111.04594421386719 0.05114357436088255 
121.06769561767578 0.08987209206850702 
123.04403686523438 0.8523876501356938 
124.05095672607422 0.06696581471887271 
133.06468200683594 0.22415592169499735 
135.04603576660156 0.06011022806543591 
137.02291870117188 0.3271092569202424 
137.0625 0.025540562806689752 
139.03903198242188 0.21843163996997425 
147.0455780029297 0.031044625375989822 
147.0565948486328 0.0397957886806237 
147.08004760742188 0.20399031145489507 
149.05966186523438 0.18142190984866569 
173.09912109375 0.04066693527432587 
215.14915466308594 0.06726369562828982 
233.1529541015625 0.41864412077782753 
234.1627197265625 0.05161929026534032 
324.78594970703125 0.027324192305479097 
328.1506042480469 0.025447546030599472 
343.1895446777344 1.0 
344.1929016113281 0.25149939941730676 
345.2074890136719 0.03031070865748596 
END IONS

BEGIN IONS
CHARGE=1+
PRECURSOR_MZ=248.05851561999998
COMPOUND_NAME=challenge_112
FORMULA=C12H10ClN3O
SMILES=O=C(NC1=CC=CC=C1)NC2=CC(Cl)=NC=C2
INCHIKEY=GPXLRLUVLMHHIK-UHFFFAOYSA-N
ADDUCT=[M+H]+
IONMODE=positive
PARENT_MASS=247.05123962
55.0961799621582 0.009052541908656416 
78.6614990234375 0.008267332634507978 
93.0478286743164 0.02226918847860439 
94.06724548339844 0.021069209650607327 
111.05872344970703 0.10200589430812351 
128.99147033691406 0.03630817401074865 
129.00149536132812 0.06943054298322172 
129.0253143310547 1.0 
130.0249786376953 0.05173716858465805 
130.99822998046875 0.01157177010674478 
131.0224609375 0.15855145896223005 
135.84063720703125 0.009069701229771958 
150.496337890625 0.010939111900705251 
155.00540161132812 0.17502798239697176 
156.9759979248047 0.010934289092622953 
157.0028839111328 0.028987070754109657 
188.14700317382812 0.009585737298884726 
248.05850219726562 0.2517515723922146 
249.06900024414062 0.038661997401125504 
250.06329345703125 0.037583645939406295 
266.32659912109375 0.008829422381528918 
END IONS

BEGIN IONS
CHARGE=1+
PRECURSOR_MZ=433.11292283999984
COMPOUND_NAME=challenge_115
FORMULA=C21H20O10
SMILES=O=C(C(C1=CC=C(O)C=C1)=COC2=CC(O[C@@H]([C@@H]([C@@H](O)[C@@H]3O)O)O[C@@H]3CO)=C4)C2=C4O
INCHIKEY=ZCOLJUOHXJRHDI-CMWLGVBASA-N
ADDUCT=[M+H]+
IONMODE=positive
PARENT_MASS=432.10564683999985
56.08829116821289 0.004951158674418637 
71.97273254394531 0.006383016958659202 
91.91880798339844 0.0057704428579746945 
139.70614624023438 0.005433842773604179 
145.03271484375 0.009801897684916737 
149.0260467529297 0.014866368190417627 
153.01853942871094 0.03250861658480604 
215.0703125 0.037744934576131775 
243.0712432861328 0.026070399380280485 
253.05514526367188 0.014437360408104121 
270.9668884277344 0.028085416307212938 
270.99615478515625 0.03450744539457628 
271.0592041015625 1.0 
272.06298828125 0.14088424572074934 
273.0712890625 0.01092179228331123 
285.15802001953125 0.006142867066019275 
433.1088562011719 0.03492646055676993 
434.1280212402344 0.006488149010154418 
459.7597961425781 0.006274858819589564 
END IONS

BEGIN IONS
CHARGE=1+
PRECURSOR_MZ=321.112134992
COMPOUND_NAME=challenge_116
FORMULA=C20H16O4
SMILES=O=C1C(C2=CC=C3C(C=CC(C)(C)O3)=C2)=COC4=CC(O)=CC=C14
INCHIKEY=PWAACAMQKVIVPZ-UHFFFAOYSA-N
ADDUCT=[M+H]+
IONMODE=positive
PARENT_MASS=320.104858992
95.27436065673828 0.007684534224739304 
97.69316864013672 0.007752314344511478 
137.02301025390625 0.27014859685627124 
138.0288543701172 0.021414246329574557 
138.10255432128906 0.008893129443425149 
183.08306884765625 0.012031367751132544 
211.07997131347656 0.01928910380441959 
267.0716552734375 0.018506513774042672 
270.8267822265625 0.00894889779710041 
279.0623474121094 0.0506068479686494 
280.075439453125 0.015057136468599446 
288.083740234375 0.011494316158323461 
303.1092529296875 0.03121780736858189 
305.08966064453125 0.02953410738041401 
306.0873718261719 0.04515957545620183 
320.9863586425781 0.02601188676109713 
321.1113586425781 1.0 
321.2163391113281 0.009334346441101066 
322.1151123046875 0.22862639389308684 
323.1248779296875 0.021242048046102087 
END IONS

BEGIN IONS
CHARGE=1+
PRECURSOR_MZ=767.49400368
COMPOUND_NAME=challenge_118
FORMULA=C42H70O12
SMILES=C[C@]12[C@@](C[C@@H](O)[C@@]3([H])[C@]2(CC[C@@H]3C(CC/C=C(C)/C)=C)C)([H])[C@@]4([C@@](C(C)([C@@H](O[C@@]5([H])[C@@H]([C@H]([C@H](O)[C@@H](CO)O5)O)O[C@]6([H])O[C@@H]([C@@H](O)[C@H](O)[C@H]6O)CO)CC4)C)([H])CC1)C
INCHIKEY=KWDWBAISZWOAHD-MHOSXIPRSA-N
ADDUCT=[M+H]+
IONMODE=positive
PARENT_MASS=766.48672768
55.0558967590332 0.2213169199410977 
57.07168960571289 0.12846596076340763 
67.05564880371094 0.2099075746145114 
69.03504943847656 0.1986803701412166 
69.07188415527344 0.30439699998160974 
81.0723876953125 0.5459213378397165 
81.95484161376953 0.12477592623556147 
83.08710479736328 0.1299979960983104 
85.03113555908203 1.0 
93.07205963134766 0.3220566654639029 
95.08834075927734 0.7765406526758535 
97.03069305419922 0.21100482352665137 
105.07247924804688 0.27941514889081154 
107.08889770507812 0.5369057883658569 
109.10150146484375 0.7775588799373294 
119.08951568603516 0.4784568237749548 
121.10433959960938 0.3791489449253268 
123.12078857421875 0.35543970175967793 
127.04043579101562 0.21870235316822564 
131.08750915527344 0.14560570570843526 
133.10464477539062 0.3981943253365396 
135.12094116210938 0.4997501112045655 
145.05445861816406 0.3409035229141296 
145.1038360595703 0.16453713358773867 
147.12142944335938 0.557985544710013 
149.1355743408203 0.29416987914514003 
159.11932373046875 0.2199565180108415 
161.1370849609375 0.3309913260791247 
163.1505889892578 0.17423602833449348 
171.48666381835938 0.12333951484863673 
175.15390014648438 0.14190451197067033 
189.17002868652344 0.6253977064908306 
191.18536376953125 0.2207192548529616 
203.18382263183594 0.32066270663562735 
207.13461303710938 0.16979198528104616 
207.17892456054688 0.3180031683348585 
215.1840057373047 0.15199618976836263 
217.20228576660156 0.3052805064262605 
220.477783203125 0.1514672414566956 
325.1252746582031 0.22139220717581412 
325.31683349609375 0.1297562543187992 
331.2700500488281 0.16665690786272822 
376.26934814453125 0.2315106424160741 
407.3628234863281 0.7029999972520335 
408.3838806152344 0.1985461953946478 
425.3796081542969 0.6087253712625983 
426.3939208984375 0.20649155285681764 
443.4062805175781 0.35543681287186946 
551.4241333007812 0.20629493233414456 
569.4326782226562 0.21110378554926176 
587.4446411132812 0.2089516522077832 
588.4512939453125 0.1632060609148065 
605.4398803710938 0.7663231497219657 
606.4562377929688 0.312790733969861 
767.507080078125 0.27114655306714275 
768.4911499023438 0.13415332652260417 
END IONS

BEGIN IONS
CHARGE=1+
PRECURSOR_MZ=761.2956382279999
COMPOUND_NAME=challenge_119
FORMULA=C45H44O11
SMILES=OC1=CC(O)=C(C(C(C/C=C(C)/C)=C(C2=C(C=C(O)C=C2)O)O3)=O)C3=C1[C@@H]4[C@H]([C@H](C5=C(C=C(O)C=C5)O)CC(C)=C4)C(C6=C(C(C/C=C(C)/C)=C(O)C=C6)O)=O
INCHIKEY=DKBPTKFKCCNXNH-QXGWMLRCSA-N
ADDUCT=[M+H]+
IONMODE=positive
PARENT_MASS=760.2883622279999
53.36832809448242 0.011799059674991058 
79.90095520019531 0.010746058805523304 
84.58549499511719 0.018632109885861902 
91.52132415771484 0.012113731537343745 
103.62584686279297 0.012377656508809528 
137.0254364013672 0.027836076830954282 
147.0448760986328 0.013170306104446122 
147.87332153320312 0.011975163766472305 
148.998046875 0.042006456939200375 
149.02304077148438 0.7833131212120727 
150.0312042236328 0.05121372460448568 
161.0613555908203 0.014393563196538468 
167.0331268310547 0.2060936316008406 
168.04034423828125 0.01426955838770634 
191.0737762451172 0.01629275088180172 
203.07034301757812 0.1096609976967163 
205.0453643798828 0.04329753643010836 
205.08538818359375 1.0 
206.0888214111328 0.11398350705668986 
215.07676696777344 0.061478837527640696 
229.05496215820312 0.02189161048508968 
267.0638732910156 0.3195000258982542 
268.0771484375 0.03473341899647402 
271.132080078125 0.10524637575155688 
272.1385192871094 0.02404873397830034 
281.05078125 0.017927985721142115 
299.05316162109375 0.13736446323991958 
300.0588684082031 0.019589172641207308 
311.0621337890625 0.032480247813689064 
341.136474609375 0.13084462388537543 
342.1428527832031 0.026299446441733664 
355.1187438964844 0.07757407577373956 
365.0998229980469 0.15114662521141525 
366.1106872558594 0.025796975711374598 
407.1958923339844 0.029180802156284952 
421.1751708984375 0.036411415175343485 
520.473388671875 0.013893542534837457 
761.2938232421875 0.3359225025809056 
762.2981567382812 0.14950299343217813 
763.3150634765625 0.02701534131684441 
END IONS

BEGIN IONS
CHARGE=1+
PRECURSOR_MZ=415.13874366399995
COMPOUND_NAME=challenge_120
FORMULA=C22H22O8
SMILES=O=C1[C@]([C@]2([H])CO1)([H])[C@@](C(C=C3OC)=CC(OC)=C3OC)([H])C4=CC(OCO5)=C5C=C4[C@H]2O
INCHIKEY=YJGVMLPVUAXIQN-LGWHJFRWSA-N
ADDUCT=[M+H]+
IONMODE=positive
PARENT_MASS=414.13146766399996
115.05797576904297 0.00830146133100411 
143.05116271972656 0.011226512009191027 
153.0572052001953 0.012512213066082141 
168.08155822753906 0.011714934030398588 
169.08963012695312 0.02808948261521434 
173.0636749267578 0.014531452753487335 
185.0078125 0.03029332945714183 
185.02508544921875 0.050865839729232566 
185.05935668945312 1.0 
186.06288146972656 0.11193698658689047 
188.04763793945312 0.008388861422606524 
199.045166015625 0.032706600293922486 
200.0491485595703 0.015071843623827276 
201.05776977539062 0.015329622662691469 
202.06451416015625 0.014005368624712751 
228.04962158203125 0.00820087115748335 
229.04891967773438 0.19446038254531095 
230.06005859375 0.027852549525892327 
247.00509643554688 0.009031515615289969 
247.05958557128906 0.11231081969473873 
248.06890869140625 0.011555356004249962 
338.12164306640625 0.012530136066965888 
414.130615234375 0.15016394232472066 
415.138427734375 0.03666702638650548 
416.1336669921875 0.010507583213575063 
END IONS

BEGIN IONS
CHARGE=1+
PRECURSOR_MZ=869.4893122240001
COMPOUND_NAME=challenge_121
FORMULA=C45H72O16
SMILES=O[C@@H]1[C@@H](O)[C@H](C)O[C@@]([H])(O[C@H]2[C@H](O)[C@@H](O[C@]3([H])O[C@@H](C)[C@H](O)[C@@H](O)[C@H]3O)[C@@](O[C@@H]4CC5=CC[C@]([C@]([H])(C[C@@]6([H])[C@]7([H])[C@H](C)[C@]8(OC[C@H](C)CC8)O6)[C@]7(C)CC9)([H])[C@@]9([H])[C@@]5(C)CC4)([H])O[C@@H]2CO)[C@@H]1O
INCHIKEY=VNONINPVFQTJOC-ZGXDEBHDSA-N
ADDUCT=[M+H]+
IONMODE=positive
PARENT_MASS=868.482036224
67.05663299560547 0.04368911824773225 
69.03582763671875 0.051056279599842526 
69.07230377197266 0.14987687020282683 
71.01502227783203 0.02250465596206518 
71.04169464111328 0.07002969651495156 
71.05158996582031 0.665690861290405 
72.05428314208984 0.019912375731763222 
73.03096771240234 0.0579322773236898 
73.06685638427734 0.02369543572071136 
75.0462417602539 0.04656485053930831 
79.05656433105469 0.03248086455563805 
81.03589630126953 0.02046934637022525 
81.07251739501953 0.06648072868588438 
83.05186462402344 0.15647785509590664 
85.01217651367188 0.03084325550732336 
85.0183334350586 0.09139535974988738 
85.03126525878906 1.0 
86.03409576416016 0.034802387688433634 
87.04641723632812 0.03171802540052766 
91.05692291259766 0.027321153284395785 
93.07295989990234 0.04631352286610847 
95.0511703491211 0.031379265317948435 
95.08847045898438 0.04869632484286892 
97.03058624267578 0.024949733639805568 
97.06705474853516 0.03147359936264554 
99.04637145996094 0.03900952468602678 
103.0425033569336 0.019487846732049258 
105.07361602783203 0.0530643335110587 
107.08855438232422 0.041348733259324026 
109.06693267822266 0.02399572290138937 
109.10458374023438 0.04904244680737945 
111.0475845336914 0.14002377861033294 
113.06184387207031 0.022454726428091994 
115.07795715332031 0.029568357940470125 
117.0582504272461 0.047037274081242086 
119.08859252929688 0.03362636677971479 
121.10484313964844 0.05019548634371108 
123.12091827392578 0.017425655022980463 
124.72919464111328 0.015315003266884125 
127.04329681396484 0.04675465789386262 
129.0587158203125 0.3645668986078444 
131.08969116210938 0.05027252708627685 
133.1057586669922 0.05092504120672551 
135.11990356445312 0.021542284420816415 
142.08151245117188 0.029523761488333362 
143.08946228027344 0.052245899454467004 
145.05198669433594 0.023727964630472907 
145.10562133789062 0.06029277281883722 
147.07003784179688 0.1477422670478483 
147.11680603027344 0.10388129312737797 
149.1374053955078 0.022400010742114684 
153.05902099609375 0.04347183644062127 
157.10638427734375 0.1281469145496313 
158.1081085205078 0.01941825042686119 
159.1216278076172 0.09783016052939572 
161.13587951660156 0.02597761705553254 
163.06515502929688 0.056517169650583746 
167.11143493652344 0.028057017447400127 
171.06817626953125 0.036502212585029635 
171.12188720703125 0.0385641091583776 
173.1365509033203 0.025383077497307206 
183.12161254882812 0.022788943897233925 
185.1356201171875 0.02665793378643725 
197.13787841796875 0.028967251096484927 
201.07762145996094 0.021530831916516762 
211.15208435058594 0.02940015741012073 
213.0806884765625 0.017756248308026128 
213.1699676513672 0.01964305097125162 
229.20147705078125 0.01803734960296444 
239.09024047851562 0.08263846414111724 
251.1835174560547 0.02769991560852049 
253.13885498046875 0.02947707844728924 
253.1941680908203 0.44506763899810975 
254.1986846923828 0.08936354638120182 
255.2117462158203 0.02209602714132482 
257.1085205078125 0.03527913300798562 
269.1964416503906 0.017082614440506218 
271.2042236328125 0.15714046161967576 
272.21710205078125 0.03605769278397373 
273.1044616699219 0.03043898148637977 
275.12396240234375 0.054327568057224 
283.2469482421875 0.03773398937835022 
293.12274169921875 0.15211045733802012 
294.1331787109375 0.02329623679583424 
309.1294860839844 0.06978786684585822 
321.6320495605469 0.01814987267638615 
379.31231689453125 0.04761208288778159 
397.30865478515625 0.3207599076937647 
398.310791015625 0.10419025688547096 
415.3200378417969 0.3315228923941271 
416.3197021484375 0.07134979112481399 
433.2716064453125 0.042262997678078534 
543.375732421875 0.036809252801221874 
561.3875122070312 0.0198249350668392 
577.3677368164062 0.12590108444173928 
578.3943481445312 0.04335169762727061 
579.3181762695312 0.03602064189963648 
580.3417358398438 0.019360092178769658 
723.4411010742188 0.07980893400511012 
724.4457397460938 0.031121966822088853 
725.407958984375 0.04711811237434153 
869.4860229492188 0.19755158378000784 
870.4918823242188 0.10005286685675553 
END IONS

BEGIN IONS
CHARGE=1+
PRECURSOR_MZ=425.1958646159999
COMPOUND_NAME=challenge_123
FORMULA=C25H28O6
SMILES=COC1=C(C=CC(/C=C/C(C(C)(C)C(/C=C/C2=CC(OC)=C(OC)C=C2)=O)=O)=C1)OC
INCHIKEY=VMMZAMVBGQWOHT-UTLPMFLDSA-N
ADDUCT=[M+H]+
IONMODE=positive
PARENT_MASS=424.1885886159999
70.04745483398438 0.012690187078448172 
107.60208892822266 0.014892981659201162 
148.0563507080078 0.04043407260035305 
163.075927734375 0.1574911209373377 
175.0812530517578 0.05419724265093448 
188.087646484375 0.026598250446109407 
189.09487915039062 0.022039982615629068 
191.0336151123047 0.05706631552920747 
191.0699462890625 1.0 
192.08023071289062 0.08238140006478409 
269.1207580566406 0.024235842375314575 
287.1280822753906 0.10787675880191593 
313.0198669433594 0.02403770942225238 
424.2037658691406 0.04610534027941495 
425.21209716796875 0.05417349008017511 
426.213623046875 0.01716083585857134 
END IONS

BEGIN IONS
CHARGE=1+
PRECURSOR_MZ=339.15908518399993
COMPOUND_NAME=challenge_124
FORMULA=C21H22O4
SMILES=O=C1C=CC2=CC3=C(OC=C3)C(OC/C=C(C)/CC/C=C(C)/C)=C2O1
INCHIKEY=SOVNCTNQAWWYAQ-OQLLNIDSSA-N
ADDUCT=[M+H]+
IONMODE=positive
PARENT_MASS=338.15180918399994
57.065948486328125 0.030454926389805917 
57.071495056152344 0.07022592387686712 
67.05613708496094 0.0840940113601615 
69.07169342041016 0.04615319052477817 
70.60433959960938 0.03089887549858873 
81.06073760986328 0.04778511933486654 
81.07220458984375 0.6231857136030508 
95.08826446533203 0.6800150134688225 
96.09071350097656 0.06569057946336047 
109.1034927368164 0.05011578467585198 
131.05123901367188 0.04276054226733442 
137.13629150390625 1.0 
138.13926696777344 0.13441671989358656 
147.0487060546875 0.08811660498177049 
175.0426483154297 0.05400163026371611 
192.9821014404297 0.044253802051048036 
202.9939422607422 0.055386557280578896 
203.03318786621094 0.8960592673059281 
204.04335021972656 0.08238595445346106 
220.9824981689453 0.053736214283839366 
229.0559539794922 0.09789792787432659 
243.07164001464844 0.07976846878771175 
248.9744415283203 0.08207565805635704 
276.9720764160156 0.04247676468272157 
294.9848327636719 0.03937468408785437 
299.98651123046875 0.048213952895802444 
302.61468505859375 0.03165222360645866 
315.9973449707031 0.031958678018302884 
318.0004577636719 0.11773324944905371 
339.1687927246094 0.03534813280077248 
340.01910400390625 0.02640087476115191 
341.2757568359375 0.04206270663991523 
END IONS

BEGIN IONS
CHARGE=1+
PRECURSOR_MZ=839.4059765239999
COMPOUND_NAME=challenge_126
FORMULA=C42H62O17
SMILES=C[C@@]1([C@@]2([H])[C@@]3([C@@]([C@](C)([C@@H](O[C@@]4([H])[C@@H]([C@H]([C@H](O)[C@@H](C(O)=O)O4)O)O[C@]5([H])O[C@@H]([C@@H](O)[C@H](O)[C@H]5O)C(O)=O)CC3)CO)([H])CC1)C)[C@]6(C([C@@]7([H])[C@](C)(CC[C@@](C(O)=O)(C)C7)CC6)=CC2=O)C
INCHIKEY=WBQVRPYEEYUEBQ-OJVDLISWSA-N
ADDUCT=[M+H]+
IONMODE=positive
PARENT_MASS=838.3987005239999
67.05599975585938 0.016638315062085674 
69.07128143310547 0.00794766860036137 
70.06742095947266 0.03188751506133382 
71.01483917236328 0.009600781526161239 
72.08255004882812 0.01628442106437109 
79.05636596679688 0.013959044642095318 
81.072509765625 0.0520867295024887 
84.04688262939453 0.009747338328962884 
84.08328247070312 0.030900134058259525 
85.03118896484375 0.10012692701628213 
86.034423828125 0.007805857178570318 
86.09903717041016 0.031858893258389205 
91.05653381347656 0.018299929980532616 
93.07289123535156 0.03329523073615961 
95.01565551757812 0.04205434257968509 
95.0515365600586 0.009347460770472734 
95.08845520019531 0.07789856558345816 
103.04154968261719 0.011962392652575284 
105.0732192993164 0.030686552753599713 
107.08879089355469 0.0628191046234265 
109.06709289550781 0.011812480619764275 
109.10475158691406 0.036364830103825664 
111.0823974609375 0.010444577374444836 
113.0250244140625 0.015550626031452883 
117.32867431640625 0.009704815016005995 
119.08924865722656 0.0687272570584214 
119.55397033691406 0.010183982800489344 
120.08500671386719 0.01185912187682019 
121.06825256347656 0.009975000029903376 
121.10478210449219 0.07562380151540057 
123.0089111328125 0.010924951083772401 
123.11917114257812 0.01622224340140709 
129.10533142089844 0.01579401637429139 
131.08749389648438 0.011505522462960539 
133.10130310058594 0.06943230747095698 
135.08436584472656 0.021798765614261483 
135.1173095703125 0.04761930749362659 
136.07769775390625 0.011093298192024786 
137.09803771972656 0.011133040312997784 
140.9952850341797 0.01287593545592624 
141.0224609375 0.2065528008755253 
145.10562133789062 0.028278513965674115 
147.12112426757812 0.06079978658672384 
149.1010284423828 0.023869976688467083 
149.13674926757812 0.024419632782553016 
157.1036834716797 0.01467870142993958 
158.048828125 0.009397862199090869 
159.033935546875 0.05385696665505846 
159.09596252441406 0.011651164364847163 
159.122314453125 0.027660516197206445 
161.10354614257812 0.016950244655184455 
161.13763427734375 0.03170013481011584 
163.12010192871094 0.008570102926281742 
163.15237426757812 0.020137421250170734 
171.118896484375 0.012826831620240108 
173.10507202148438 0.012102751624664669 
173.1376190185547 0.0313419920410313 
175.11778259277344 0.017296139499762653 
175.15341186523438 0.07155287691553908 
177.04298400878906 0.011665041845360699 
177.16798400878906 0.01165258388523574 
185.13894653320312 0.012648229255914006 
187.14743041992188 0.042561948830937474 
189.13003540039062 0.012204860974647291 
189.1632843017578 0.07214067761392247 
197.13812255859375 0.013218664636540695 
199.15310668945312 0.026065265414393014 
201.16741943359375 0.01050666158935818 
205.1637420654297 0.014890189498264636 
211.1522979736328 0.01414371400986276 
213.169677734375 0.013062169411056139 
215.1481170654297 0.026235933594227476 
217.16412353515625 0.03384035504477931 
227.1822052001953 0.009432540325699599 
233.16041564941406 0.020907319269974856 
235.1770477294922 0.026376963612318734 
251.17958068847656 0.01142442646463604 
263.1716613769531 0.013554705606672292 
265.1995849609375 0.009836422800646552 
299.2034606933594 0.010240874863711802 
317.2179870605469 0.016123113709268326 
393.3094787597656 0.00975559290677107 
405.3304138183594 0.020982392763929762 
406.3385925292969 0.009473353094338716 
423.3379211425781 0.03051352968288865 
433.3187255859375 0.018205006340654934 
439.31671142578125 0.04543596231855628 
451.3192443847656 0.17547137403906213 
452.3214416503906 0.03765407500997064 
469.1101989746094 0.028741961118092362 
469.3303527832031 1.0 
470.3343505859375 0.30451473769384935 
471.3538818359375 0.023677215609494033 
487.3409729003906 0.6046893278438709 
488.3447570800781 0.1752291424520518 
489.3566589355469 0.01934791159946837 
627.376953125 0.028491005933057676 
645.3583984375 0.058415341206635975 
646.3909301757812 0.023825767750672598 
663.3948364257812 0.03581229046989083 
664.3938598632812 0.020699125912921595 
863.6302490234375 0.01445199912898585 
872.0835571289062 0.010018715028001522 
END IONS

BEGIN IONS
CHARGE=1+
PRECURSOR_MZ=401.12309359999995
COMPOUND_NAME=challenge_128
FORMULA=C21H20O8
SMILES=O=C1OC[C@]2([H])[C@H](O)C3=C(C=C4OCOC4=C3)[C@@H](C5=CC(OC)=C(O)C(OC)=C5)[C@]21[H]
INCHIKEY=YVCVYCSAAZQOJI-JHQYFNNDSA-N
ADDUCT=[M+H]+
IONMODE=positive
PARENT_MASS=400.11581759999996
139.04246520996094 0.00911530216614552 
148.62110900878906 0.008129005644146198 
154.0655517578125 0.017725421205256272 
167.07334899902344 0.014641610242675046 
173.0626220703125 0.011672714093789824 
175.05654907226562 0.008365385831998173 
185.0078125 0.03188230486341138 
185.02505493164062 0.046095318693377484 
185.05929565429688 1.0 
186.0624237060547 0.11607644090293634 
189.0594940185547 0.012209922091162706 
199.04400634765625 0.02939151690856243 
200.05206298828125 0.022997198772224954 
201.0592803955078 0.02157526805895963 
202.06398010253906 0.01884414344060774 
229.04896545410156 0.18739807629023425 
230.0585479736328 0.020318715215440333 
246.0605010986328 0.023569617996659242 
247.0591278076172 0.1090390064591653 
400.0049743652344 0.010400621557278875 
400.1131286621094 0.15667381522323318 
401.114990234375 0.04616301636581636 
END IONS

BEGIN IONS
CHARGE=1+
PRECURSOR_MZ=309.112134992
COMPOUND_NAME=challenge_132
FORMULA=C19H16O4
SMILES=O=C(CC(/C=C/C1=CC=C(O)C=C1)=O)/C=C/C2=CC=C(O)C=C2
INCHIKEY=PREBVFJICNPEKM-YDWXAUTNSA-N
ADDUCT=[M+H]+
IONMODE=positive
PARENT_MASS=308.104858992
68.99864959716797 0.017520842982224345 
86.14076232910156 0.00932181838948102 
91.05675506591797 0.027478534972248794 
107.04902648925781 0.058172010466702055 
117.69860076904297 0.010494597263933236 
119.04901123046875 0.1750628009902939 
120.05490112304688 0.010468352185840104 
121.03101348876953 0.01951566340782666 
121.06803131103516 0.034081871175181765 
131.04898071289062 0.14373825439308713 
132.05674743652344 0.016646868409202358 
147.01905822753906 0.04524365400109796 
147.043701171875 1.0 
148.04718017578125 0.08397250753261801 
189.0535125732422 0.044544792820913906 
225.0901641845703 0.3733741888772684 
226.09373474121094 0.05964445770725753 
309.11126708984375 0.4615176510523623 
310.1142883300781 0.09670364655470409 
END IONS

BEGIN IONS
CHARGE=1+
PRECURSOR_MZ=885.4842268440001
COMPOUND_NAME=challenge_135
FORMULA=C45H72O17
SMILES=C[C@@]12[C@]([C@@H]3C)([H])[C@](O[C@]34CC[C@@H](C)CO4)([H])C[C@@]1([H])[C@@](CC=C5[C@@]6(CC[C@H](O[C@@](O[C@H](CO)[C@@H](O[C@]([C@@H]([C@@H](O)[C@@H]7O)O)([H])O[C@@H]7CO)[C@@H]8O)([H])[C@@H]8O[C@@](O[C@@H](C)[C@H](O)[C@H]9O)([H])[C@@H]9O)C5)C)([H])[C@]6([H])CC2
INCHIKEY=OLAMGHNQGZIWHZ-YIKYYZBWSA-N
ADDUCT=[M+H]+
IONMODE=positive
PARENT_MASS=884.476950844
67.05615997314453 0.019734470405777176 
68.67083740234375 0.015364056811384239 
69.0352783203125 0.032032299049593746 
69.07220458984375 0.09024389542463611 
71.04185485839844 0.04438850626841447 
71.05152893066406 0.46482844999839645 
72.05438232421875 0.02167328181581138 
73.03053283691406 0.028390981458990723 
75.04647064208984 0.05178601619288115 
81.07254791259766 0.05277451067882376 
83.0517349243164 0.1388774772821393 
85.03117370605469 1.0 
86.03404998779297 0.030566867183654575 
87.0464096069336 0.03571449144690149 
97.03131866455078 0.09149478956784124 
99.04689025878906 0.019379787064937454 
105.0719223022461 0.03558005841038419 
107.0881118774414 0.037256515916097646 
109.03135681152344 0.03479702949243342 
109.06678771972656 0.025703168247423542 
109.1038589477539 0.046957459873362827 
111.03208923339844 0.023090311426766708 
111.0475082397461 0.07211580862616378 
119.08840942382812 0.03192754006389028 
121.10346221923828 0.04633100623704103 
125.0985336303711 0.03113671135872119 
127.04330444335938 0.08336897124379677 
129.03457641601562 0.02897183684204655 
129.05856323242188 0.39394070697619943 
131.08935546875 0.021426880437192455 
133.1052703857422 0.06436639757546012 
135.12049865722656 0.03112857387121828 
143.08941650390625 0.03258882258246684 
145.05377197265625 0.06832678528850324 
145.1036834716797 0.02949687145741508 
147.06971740722656 0.26673815164389886 
147.12103271484375 0.062232223282722154 
149.13583374023438 0.04021197294354035 
157.1071319580078 0.07845873067221443 
159.1221923828125 0.0560569530876351 
161.1374053955078 0.052147555938853854 
163.0644989013672 0.032462269945493866 
165.0806884765625 0.02221006404366068 
171.1208953857422 0.0387297737137933 
173.1376495361328 0.02664825190645972 
175.1519317626953 0.022150384777882975 
197.13619995117188 0.024033475640959496 
251.1868896484375 0.018182081805911316 
253.19427490234375 0.2842803001253543 
254.20327758789062 0.04064207674084279 
255.09414672851562 0.05789956349079085 
271.2041320800781 0.16707452727189065 
273.0948486328125 0.12456397010738085 
283.2506408691406 0.07572810795811855 
309.1168518066406 0.303127095920476 
310.1286926269531 0.036373791338000776 
379.3047790527344 0.041330157411035365 
397.30877685546875 0.40869696318988463 
398.3175048828125 0.10939578055041574 
415.3214111328125 0.37585708767971754 
416.3260498046875 0.10725859527836612 
490.8897705078125 0.01881399311457443 
577.38818359375 0.041597602964163156 
723.4459228515625 0.037343485722293415 
885.4935302734375 0.09116732051251661 
886.4940795898438 0.038708836296148595 
END IONS

BEGIN IONS
CHARGE=1+
PRECURSOR_MZ=579.149702272
COMPOUND_NAME=challenge_137
FORMULA=C30H26O12
SMILES=O[C@@H]1[C@@H](C2=CC=C(O)C(O)=C2)OC3=CC(O)=CC(O)=C3[C@H]1C4=C5C(C[C@H](O)[C@@H](C6=CC=C(O)C(O)=C6)O5)=C(O)C=C4O
INCHIKEY=XFZJEEAOWLFHDH-AVFWISQGSA-N
ADDUCT=[M+H]+
IONMODE=positive
PARENT_MASS=578.142426272
51.71714401245117 0.030393075632063737 
97.59210968017578 0.042661199541202816 
123.04769134521484 0.6802739518439817 
124.05089569091797 0.04834193745542012 
127.0427017211914 1.0 
128.0464630126953 0.04928074443266925 
135.0478057861328 0.25746764707399555 
137.02748107910156 0.04663584319860504 
139.0386962890625 0.7605136164967615 
140.0456085205078 0.04589765196383941 
147.0468292236328 0.07290664906885623 
149.0269775390625 0.07613417881607629 
151.043701171875 0.19445315916136935 
159.0482635498047 0.04325551839211698 
161.06329345703125 0.06674007964302198 
163.0387420654297 0.412486667488005 
165.02967834472656 0.03850180500154855 
165.05831909179688 0.07516002866511014 
167.03836059570312 0.10743709308664241 
175.04188537597656 0.07218976171607995 
177.0577392578125 0.04315980584526267 
179.03819274902344 0.08455848240523775 
187.04270935058594 0.08567416436025346 
191.03408813476562 0.15559278487092093 
197.06265258789062 0.03878611217351382 
201.05992126464844 0.09133514342637569 
203.038818359375 0.11170051572142749 
229.05592346191406 0.10601347624620508 
231.06951904296875 0.05463764491747995 
233.0496826171875 0.12282467601853492 
243.0712432861328 0.049755777455361166 
245.0452117919922 0.15207807979938442 
247.0607452392578 0.41469081535382835 
248.06973266601562 0.06634543025366961 
255.06936645507812 0.05233659537302461 
257.0420837402344 0.20393859537878603 
258.0539855957031 0.07046572161842242 
259.0583801269531 0.18622589135810708 
269.0502624511719 0.04113625108755312 
271.0595703125 0.22309532408597468 
275.056640625 0.18460883962377345 
283.06793212890625 0.11357293769210759 
287.0539855957031 0.38937972675694554 
288.06610107421875 0.0698329527776678 
289.0691833496094 0.39474723312482995 
291.0868835449219 0.3412240768435043 
292.09814453125 0.03920193983234381 
299.059326171875 0.08589192621058807 
301.06903076171875 0.23754340917180355 
302.0784912109375 0.0393551284774819 
303.094970703125 0.06911497259603948 
409.09002685546875 0.49961247702714645 
410.1120910644531 0.12050188294829917 
411.11602783203125 0.03718531469819802 
427.1012878417969 0.6273869978120645 
428.11993408203125 0.14522903247482039 
439.11041259765625 0.05134068076085944 
453.1383972167969 0.08691360813599273 
560.1322021484375 0.03247649731286365 
579.1439208984375 0.2576423489553092 
580.1608276367188 0.06580670750044701 
END IONS

BEGIN IONS
CHARGE=1+
PRECURSOR_MZ=801.499482984
COMPOUND_NAME=challenge_138
FORMULA=C42H72O14
SMILES=C[C@]12[C@@]3([H])[C@]([C@@]4([H])C(C(C)([C@@H](O)CC4)C)=CC3)([C@H](O)C[C@@]1([C@]([C@H](C)CC[C@H](C(C)(O)C)O[C@@H]5O[C@@H]([C@@H](O)[C@H](O)[C@H]5O)CO[C@@H]6O[C@@H]([C@@H](O)[C@H](O)[C@H]6O)CO)([H])CC2)C)C
INCHIKEY=NWPTUAQJIALPLJ-NCHDIWMLSA-N
ADDUCT=[M+H]+
IONMODE=positive
PARENT_MASS=800.492206984
56.051002502441406 0.03797453626181996 
57.0348014831543 0.04207895853416993 
61.02975082397461 0.053991369458405 
67.05598449707031 0.07430834716763586 
69.03546905517578 0.1263028564047239 
69.07061767578125 0.13403135263597285 
70.06720733642578 0.20418360073006844 
71.05111694335938 0.07949288410522362 
72.0745849609375 0.03000501181995632 
72.08283996582031 0.11217298519530287 
73.02949523925781 0.02725599362685178 
81.03484344482422 0.06174756544183254 
81.07211303710938 0.15904863554706095 
82.53133392333984 0.03104566059890968 
83.087646484375 0.0754863808866552 
84.0466079711914 0.06489517077190624 
84.08296966552734 0.12151793445889537 
85.03070831298828 0.8236310020739493 
86.03374481201172 0.03399424894687867 
86.09688568115234 0.13772239040003062 
91.04150390625 0.04783583118243817 
91.05607604980469 0.04231307021646099 
93.0721435546875 0.11378336827790443 
95.08578491210938 0.3235784955136194 
97.03094482421875 0.21290175292972255 
97.10263061523438 0.02772560552981392 
99.04669189453125 0.04132182574519846 
105.07273864746094 0.10058773858191622 
107.08839416503906 0.19511828029652453 
109.029296875 0.04901715403678569 
109.10135650634766 0.33319060479424367 
119.08529663085938 0.22269202869082846 
120.0843505859375 0.07596821678631145 
121.10118865966797 0.24170228899897858 
122.10658264160156 0.02774426763514758 
123.11959838867188 0.09373898139665059 
127.03890228271484 0.16276220388811677 
127.1149673461914 0.12385670403523083 
129.1051025390625 0.0743721414423875 
131.08657836914062 0.05578554419043017 
133.1044921875 0.16299594180502963 
134.10745239257812 0.027557039213071382 
135.12060546875 0.19321174795415783 
136.0782470703125 0.07142394741689252 
137.13478088378906 0.05985819266797913 
145.0533447265625 0.263512156644173 
145.10519409179688 0.12159606637355487 
147.11659240722656 0.1507617637420074 
149.1362762451172 0.10442833482440801 
157.1040802001953 0.05490903447731454 
159.09422302246094 0.054375678757926815 
159.11669921875 0.15436353138313522 
161.13182067871094 0.1538670065041156 
163.06007385253906 0.15421263482464723 
163.15194702148438 0.07493131687410147 
169.10272216796875 0.03438266592790694 
171.1195526123047 0.05628181117133883 
173.1318359375 0.19113912922833298 
175.14718627929688 0.1277999362505771 
179.14585876464844 0.04934781679157407 
183.11997985839844 0.03475962326243951 
185.13868713378906 0.07250367336613697 
186.14157104492188 0.03380448078905759 
187.14784240722656 0.22459395624373568 
189.1630096435547 0.24121545211856196 
190.1693115234375 0.05061766971340269 
191.184814453125 0.08341212058328928 
199.1521453857422 0.053674939689218576 
201.1629180908203 0.15485293976935388 
203.17990112304688 0.14861186528658535 
207.1796417236328 0.1036589612193004 
213.16839599609375 0.043688003536717514 
215.18455505371094 0.10512382996486007 
227.1858367919922 0.03875886048205567 
229.1986083984375 0.03364290949136811 
229.72581481933594 0.03278661674755946 
233.19418334960938 0.033608025968620454 
241.202392578125 0.03642487510256122 
255.21817016601562 0.028545110416272966 
295.2505187988281 0.04744634149477446 
302.4780578613281 0.030091030184095896 
325.1125183105469 0.1321505802034719 
405.3509826660156 0.21679815234318 
406.25616455078125 0.028115850223541596 
406.3689270019531 0.07199279589659437 
423.3607177734375 1.0 
424.36700439453125 0.3133900400198066 
425.37933349609375 0.038696176290477294 
441.3727722167969 0.73374569123272 
442.37298583984375 0.18908778522783543 
459.3836364746094 0.21939710747458993 
460.40435791015625 0.08512227659594826 
567.4229736328125 0.04453442139923405 
585.4324340820312 0.06765548041708629 
586.4357299804688 0.03768837775061417 
603.4260864257812 0.22629662199821549 
604.4468994140625 0.10959440775231256 
END IONS

BEGIN IONS
CHARGE=1+
PRECURSOR_MZ=305.21112075599996
COMPOUND_NAME=challenge_141
FORMULA=C19H28O3
SMILES=CCCCCCC/C=C/C(CCC1=CC=C(O)C(OC)=C1)=O
INCHIKEY=LGZSMXJRMTYABD-MDZDMXLPSA-N
ADDUCT=[M+H]+
IONMODE=positive
PARENT_MASS=304.20384475599997
55.0561408996582 0.004242480409515813 
55.936614990234375 0.0019242500031472843 
57.02976989746094 0.0017666718864526175 
57.03538513183594 0.0031884654148566114 
57.072105407714844 0.010034255986678517 
57.9371337890625 0.0052908542939007035 
67.04878997802734 0.003446292385240434 
67.05668640136719 0.008096752865297895 
69.03533935546875 0.0019921946720519506 
69.07234191894531 0.008478590968377124 
70.06753540039062 0.0021018997467200378 
71.08757781982422 0.0023474700769688427 
72.93970489501953 0.0026403389160758405 
76.26786804199219 0.018869901814058346 
76.5191879272461 0.002989747363935781 
79.05634307861328 0.002162362127905526 
81.07259368896484 0.005546481281870462 
83.08772277832031 0.002420594043999085 
85.06712341308594 0.003797638339459701 
88.07827758789062 0.00319863823391559 
91.05702209472656 0.003251083459060645 
93.07295227050781 0.006510046461426782 
95.05238342285156 0.014796707329405799 
95.08883666992188 0.011137675369783875 
97.06727600097656 0.0034477862929012397 
105.07349395751953 0.004847177075171549 
107.05221557617188 0.002980427541461778 
107.0892333984375 0.009298584781567597 
109.06888580322266 0.002323782270736795 
109.10525512695312 0.005657990904711321 
113.06208038330078 0.002847816017575782 
113.09999084472656 0.00473546629489167 
113.87228393554688 0.003052457891992563 
119.08943176269531 0.011442919843567283 
121.06869506835938 0.005373362032852363 
121.10545349121094 0.014767913888335704 
123.04756164550781 0.002473572316120374 
123.08495330810547 0.0039235446828356085 
123.12030792236328 0.004563864428647985 
126.06427764892578 0.0018360932614262218 
131.0879669189453 0.003288817478096974 
133.10572814941406 0.018443692508313493 
134.10723876953125 0.0035072216378663826 
135.08438110351562 0.008347234755954143 
135.11961364746094 0.004021218154664643 
137.0019989013672 0.004991826677790007 
137.0279083251953 0.04900495048376478 
137.0632781982422 0.005121101295225308 
137.09976196289062 0.0023635448633835166 
138.02947998046875 0.0020866793734920235 
141.07302856445312 0.004890253503898695 
142.0801544189453 0.002115668912709412 
143.0902557373047 0.0031860003255561133 
145.0684051513672 0.0035091607631990624 
145.10601806640625 0.006385622288154876 
147.03143310546875 0.0030002868804590486 
147.0826416015625 0.0041733032971467314 
147.1215057373047 0.0028746808566399874 
149.10011291503906 0.0023584276933603337 
149.1353302001953 0.0026259130540204523 
151.08010864257812 0.0026406742459314293 
151.11695861816406 0.0019496051495604993 
157.10598754882812 0.004772153445284089 
158.1115264892578 0.0019165102986650957 
159.04989624023438 0.006737866772584652 
159.089599609375 0.0025673893934243055 
159.12185668945312 0.006189240415781369 
161.1016845703125 0.011122248172710108 
162.1037139892578 0.002266687151752356 
162.8823699951172 0.0028400044711510866 
163.08197021484375 0.00484843744592629 
163.11781311035156 0.002282461213866846 
163.1528778076172 0.003601203445708907 
169.0357666015625 0.0028381185695673626 
169.0703582763672 0.03860817560301965 
170.0703887939453 0.008728611451627977 
171.088134765625 0.0017577309037430456 
171.12203979492188 0.0029912977332922468 
173.10275268554688 0.0030913367275606147 
173.13864135742188 0.015659318997121387 
175.02783203125 0.005640535943513839 
175.0791778564453 0.0019290579492601836 
175.1175994873047 0.0033809575013796244 
175.15354919433594 0.009315197067135223 
179.11009216308594 0.0025239994909818262 
179.8854217529297 0.002902486926336868 
180.894287109375 0.01151181687354642 
181.09298706054688 0.004609057665033222 
182.89300537109375 0.004236354214350828 
185.06710815429688 0.0021670798162540367 
185.13815307617188 0.003161517401036433 
187.15219116210938 0.0027351971956169497 
189.09600830078125 0.004143915288113016 
189.1311492919922 0.002708041750836012 
190.87696838378906 0.0036393246017480973 
191.14352416992188 0.009252591367603001 
197.89682006835938 0.00711310513079336 
199.11819458007812 0.002087346795256496 
199.15423583984375 0.004246153860052109 
199.89743041992188 0.004602339330364646 
201.13470458984375 0.0057585141743836865 
203.02267456054688 0.00473375342108497 
203.1436767578125 0.008959992694674164 
205.03907775878906 0.007278457355153951 
208.8905792236328 0.01972979036859542 
209.16079711914062 0.007049543427496622 
209.89117431640625 0.0021385535057870655 
215.1498565673828 0.0027353554502621336 
215.907470703125 0.004031405544483792 
217.15830993652344 0.016249036516578597 
218.170166015625 0.003790281319803655 
219.14540100097656 0.02216328216617702 
220.14906311035156 0.0031333256109383747 
221.1033935546875 0.007988975380777351 
221.1585693359375 0.003971529838766833 
226.901611328125 0.031071942072770805 
227.1490478515625 0.0047438003649658105 
227.90147399902344 0.002474215858027901 
230.96324157714844 0.0036254742847194404 
231.01040649414062 0.053194494107351456 
231.90377807617188 0.0026008307046170944 
232.0225372314453 0.006260678424436892 
237.15676879882812 0.017106507943900735 
238.15689086914062 0.003564619909611034 
245.16232299804688 0.02434661505828615 
246.1648406982422 0.0046533981072051514 
247.13929748535156 0.004748485673847275 
248.042236328125 0.003728338185115848 
249.0999298095703 0.006424434341072147 
249.91563415527344 0.00336206428473032 
253.88168334960938 0.008157267660745662 
255.89056396484375 0.015425293161104272 
257.8872985839844 0.0035794881561349297 
258.8933410644531 0.004112860950756477 
260.89398193359375 0.003965926167251293 
263.0769348144531 0.005379529107094491 
263.10443115234375 0.0029724674542320117 
263.1626281738281 0.01994664051631832 
264.17437744140625 0.002950965666768865 
265.1518859863281 0.0053046483516053684 
269.1927185058594 0.004196029635579201 
276.1840515136719 0.0021775472884631285 
276.9061584472656 0.005914179676434317 
277.0846252441406 0.020867816926078867 
278.09619140625 0.003299843900855937 
278.9078369140625 0.006197236929911561 
280.88067626953125 0.02505152091278391 
281.88775634765625 0.006204763537026257 
283.8746032714844 0.012378016186210636 
287.0740966796875 0.004055531485379298 
287.21136474609375 0.010113853621029475 
288.0816345214844 0.0035004899466676504 
289.09295654296875 0.006236428632079939 
291.0741882324219 0.005899189602165663 
298.8860778808594 0.002823859866510596 
303.2027587890625 0.007206709313101468 
303.30810546875 0.03237036193923685 
303.8852844238281 0.008094250741981963 
304.10125732421875 0.06835830040643744 
304.2000732421875 0.006525531536797891 
304.3171081542969 0.0033982453035784855 
304.8277587890625 0.003257552471832972 
304.92352294921875 0.01358592896639146 
304.96990966796875 0.029166446054564532 
305.00506591796875 0.05462131798833261 
305.0798034667969 1.0 
305.17718505859375 0.022234643273598313 
305.6640319824219 0.006861166973606745 
305.97430419921875 0.008077936347511154 
306.0111389160156 0.015515554163439945 
306.084228515625 0.2720710622060851 
306.2925720214844 0.018497821263373238 
306.90509033203125 0.002439956358177209 
307.087158203125 0.032352430190387124 
307.2948913574219 0.0028228085456899667 
END IONS

BEGIN IONS
CHARGE=1+
PRECURSOR_MZ=605.4411802599999
COMPOUND_NAME=challenge_142
FORMULA=C36H60O7
SMILES=C[C@]12[C@@](C[C@@H](O)[C@@]3([H])[C@]2(CC[C@@H]3C(CC/C=C(C)/C)=C)C)([H])[C@@]4([C@@](C(C)([C@@H](O[C@]5([H])O[C@@H]([C@@H](O)[C@H](O)[C@H]5O)CO)CC4)C)([H])CC1)C
INCHIKEY=WMGBQZAELMGYNO-YMWSGFAJSA-N
ADDUCT=[M+H]+
IONMODE=positive
PARENT_MASS=604.4339042599998
85.02865600585938 0.09322267871217717 
91.05480194091797 0.012266892392681032 
93.07028198242188 0.04161187598673202 
95.08567810058594 0.1276576718399631 
97.02835845947266 0.032211810099170894 
97.10059356689453 0.015465519474575196 
99.04434204101562 0.01285431795364132 
99.07947540283203 0.022221502719764048 
105.0697021484375 0.02945510700507527 
107.08600616455078 0.07757052642496397 
109.02760314941406 0.009652446956664234 
109.0641860961914 0.02330925019943504 
109.10118103027344 0.08301652929797433 
110.10380554199219 0.011267461643366224 
111.11595153808594 0.008165457355512834 
119.08540344238281 0.06375705392551656 
121.1009521484375 0.0590594695362079 
123.07980346679688 0.013258956965176327 
123.11739349365234 0.03970182074286748 
127.03852081298828 0.026371108823622084 
133.10105895996094 0.06369566290250431 
134.1054229736328 0.00872472267519133 
135.11697387695312 0.0867277248006485 
136.1197052001953 0.009068040595772502 
137.1315155029297 0.014658742221914033 
145.0486297607422 0.011556217639546047 
145.09994506835938 0.016481994065166445 
147.11660766601562 0.06411511352401121 
149.1313018798828 0.03412372646821667 
150.13389587402344 0.006712459863101152 
151.35121154785156 0.010428761804680648 
151.48281860351562 0.007860604864341205 
159.11529541015625 0.025093791384859742 
161.13270568847656 0.04010869105327959 
161.15774536132812 0.007763286945639808 
163.14724731445312 0.03167639161141127 
173.13287353515625 0.012417904612045734 
175.14744567871094 0.026745898035344044 
177.16549682617188 0.006726447673424941 
187.14776611328125 0.01829773054320806 
189.16343688964844 0.18728830167277186 
190.16567993164062 0.02121356543486387 
191.1793212890625 0.08118336202126639 
192.18426513671875 0.012654922074129205 
201.16232299804688 0.012455604518522515 
203.1775360107422 0.0592983910151351 
205.1931915283203 0.024312555184785936 
207.17214965820312 0.03666310683273284 
215.1797637939453 0.016850810146672477 
217.1944122314453 0.03159651614671927 
221.18858337402344 0.0802169420008049 
229.19381713867188 0.007761737251225374 
231.21072387695312 0.014334123201325079 
245.22596740722656 0.018700744333705548 
271.2392578125 0.028136302139552493 
285.25592041015625 0.007498595036973657 
295.2431335449219 0.008057751728854753 
331.09588623046875 0.020436801156818722 
338.8370056152344 0.006446660230629737 
369.22235107421875 0.008472687536670506 
407.3679504394531 0.07453343866829429 
408.3669128417969 0.019192476730788235 
425.3760986328125 0.06101588134295332 
426.38006591796875 0.019489798005482496 
443.384033203125 0.007858257012033416 
587.4256591796875 0.026991467721957714 
588.4328002929688 0.008357891731716784 
603.53857421875 0.015807806130401635 
604.5425415039062 0.014444204653114313 
605.4393310546875 1.0 
606.21435546875 0.014747334950794088 
606.4414672851562 0.3735120248230387 
607.2941284179688 0.009478014957150708 
607.4480590820312 0.05821387719384513 
666.4480590820312 0.008168931580174796 
END IONS

BEGIN IONS
CHARGE=1+
PRECURSOR_MZ=1125.6051298240004
COMPOUND_NAME=challenge_143
FORMULA=C54H92O24
SMILES=CC(O)(C)[C@H](O[C@@H]1O[C@H](CO)[C@@H](O)[C@H](O)[C@H]1O[C@@H]2O[C@H](CO)[C@@H](O)[C@H](O)[C@H]2O)CC[C@@H](C)[C@H]3CC[C@@]4(C)[C@@]5([H])CC=C6C(C)(C)[C@@H](O[C@H]7[C@H](O)[C@@H](O)[C@H](O)[C@@H](CO[C@H]8[C@H](O)[C@@H](O)[C@H](O)[C@@H](CO)O8)O7)CC[C@@]6([H])[C@]5(C)[C@H](O)C[C@@]43C
INCHIKEY=WRPAFPPCKSYACJ-KGFBLRRZSA-N
ADDUCT=[M+H]+
IONMODE=positive
PARENT_MASS=1124.5978538240004
79.05719757080078 0.03430741535622112 
81.03591918945312 0.046848151028819014 
81.07252502441406 0.15641506423856077 
83.08712768554688 0.04578743312928115 
85.01835632324219 0.08432249767588593 
85.03121185302734 1.0 
86.03323364257812 0.02655844193981899 
91.04084777832031 0.0510495243357157 
93.07215881347656 0.06725065726041728 
95.08847045898438 0.20755472815176956 
97.03131103515625 0.22926857888874985 
97.1033935546875 0.03561631768397898 
99.04682159423828 0.05557283808248483 
105.0732650756836 0.08086690623380371 
107.08885192871094 0.14198931578753066 
109.0320053100586 0.11424850778452358 
109.10453033447266 0.22932933367565772 
115.03976440429688 0.03048012035950293 
119.08921813964844 0.21644295121014545 
121.10494995117188 0.1963621981348595 
123.12104034423828 0.12093291275139147 
127.04301452636719 0.2879598905137311 
127.09680938720703 0.0471737397524429 
127.1158447265625 0.129658296499901 
131.08949279785156 0.048943711731226455 
133.10536193847656 0.16658321311227042 
135.11668395996094 0.1629719515750038 
137.13600158691406 0.05080071438040485 
145.0538787841797 0.5375330038581013 
145.1055145263672 0.12117360209153485 
147.12159729003906 0.1788652240378839 
149.13711547851562 0.09256381335218515 
159.11680603027344 0.19291529664996757 
161.132568359375 0.1879901735162707 
163.06031799316406 0.24581214482047387 
163.15084838867188 0.05864594030970288 
171.12283325195312 0.06122533310703486 
173.13803100585938 0.17517356541392243 
175.14801025390625 0.13117855956228505 
177.16883850097656 0.044733161529883145 
185.1356201171875 0.058822975713427504 
187.14892578125 0.1529718335114475 
189.16978454589844 0.2217956202376038 
190.1715087890625 0.03632848214974918 
191.1855010986328 0.0897776857241623 
199.15357971191406 0.03718503849471243 
201.1706085205078 0.09516402084439056 
203.18531799316406 0.12338917409927695 
207.1795654296875 0.06827802744923747 
213.1697235107422 0.04270309388845499 
215.18643188476562 0.08169311140501145 
219.4259796142578 0.04299427113073963 
227.18423461914062 0.049590349424976546 
250.427001953125 0.029857692811571523 
255.220703125 0.03326024929509464 
283.24481201171875 0.035142748728149854 
289.0982360839844 0.07115459805412082 
325.11181640625 0.8446036085017268 
326.12298583984375 0.06372299161305263 
382.3485107421875 0.03143772180366594 
405.36474609375 0.12639364439304784 
406.3594055175781 0.03029076357035701 
423.3608093261719 0.9541945764119323 
424.36541748046875 0.2727270847626815 
441.2399597167969 0.0357602450999429 
441.37127685546875 0.9312977977610835 
442.37420654296875 0.2348418979154171 
459.383056640625 0.504713972156658 
460.4029541015625 0.11802244382212365 
487.1780700683594 0.07887212656077625 
577.5535278320312 0.02946941840753478 
585.436279296875 0.06682954642978203 
603.4265747070312 0.39800561287331454 
604.4576416015625 0.1210024923396529 
621.4335327148438 0.23027355745512026 
622.4620361328125 0.08190954377844613 
765.4931640625 0.06957743824616767 
909.49169921875 0.030435524398163532 
END IONS

BEGIN IONS
CHARGE=1+
PRECURSOR_MZ=329.10196423199994
COMPOUND_NAME=challenge_144
FORMULA=C18H16O6
SMILES=O=C1C=C(C2=CC=C(OC)C=C2)OC3=CC(OC)=C(OC)C(O)=C13
INCHIKEY=QCDYOIZVELGOLZ-UHFFFAOYSA-N
ADDUCT=[M+H]+
IONMODE=positive
PARENT_MASS=328.09468823199995
50.4651985168457 0.007795887775546369 
65.80786895751953 0.008470816057418354 
71.45966339111328 0.010305467981396515 
76.81608581542969 0.0102036986965599 
82.27180480957031 0.010568726860843211 
86.70616912841797 0.00993391385963408 
108.0232162475586 0.023207141778356446 
132.05857849121094 0.014512918911321223 
133.0684356689453 0.0375833038611475 
135.04689025878906 0.011854095377846197 
136.0194854736328 0.032421302133459444 
156.3157196044922 0.008700493273255828 
237.06373596191406 0.008677018766369764 
240.08485412597656 0.021373077552640386 
268.07232666015625 0.2796293287347216 
269.07427978515625 0.045891886648903736 
296.0676574707031 0.23031361228163028 
297.0733642578125 0.04402649337080817 
313.07513427734375 0.016060364644322114 
314.0760803222656 0.10696761244455917 
315.0923767089844 0.025252879041871124 
328.97491455078125 0.024726103642744343 
329.0163269042969 0.04332643611395682 
329.1009826660156 1.0 
330.1046142578125 0.18201539927651725 
331.1164855957031 0.013338481922913953 
END IONS

BEGIN IONS
CHARGE=1+
PRECURSOR_MZ=347.07614340799995
COMPOUND_NAME=challenge_145
FORMULA=C17H14O8
SMILES=O=C1C=C(C2=C(O)C=CC(O)=C2OC)OC3=C(OC)C(O)=CC(O)=C13
INCHIKEY=CPFJPTACQDZPLS-UHFFFAOYSA-N
ADDUCT=[M+H]+
IONMODE=positive
PARENT_MASS=346.06886740799996
94.04376220703125 0.007602482052440222 
136.0176239013672 0.011136178715265923 
137.02603149414062 0.011499632109406861 
142.02870178222656 0.01679305334359612 
147.83010864257812 0.008158100705354273 
150.03587341308594 0.05752068663552672 
151.04330444335938 0.012451296302158231 
152.04678344726562 0.00949368073245548 
162.0355682373047 0.009045143581330673 
165.0232696533203 0.011812760545363492 
165.05873107910156 0.00845456811173099 
167.0025177001953 0.010584935991242233 
169.01307678222656 0.08099992845072113 
179.0070343017578 0.007755239975940347 
181.016357421875 0.015215488355937374 
183.0336456298828 0.012384803139177725 
194.02703857421875 0.02126612288267555 
261.0474548339844 0.008519129934342881 
286.0478515625 0.03983131021448644 
289.03363037109375 0.08820566257701067 
290.0435791015625 0.01473885841619562 
302.0459899902344 0.009573865544697443 
314.041748046875 0.19633188897370488 
315.046142578125 0.03647889404250811 
317.0289306640625 0.08876817544906124 
318.0382080078125 0.01365257136401227 
331.0528259277344 0.01737660051019921 
332.0516052246094 0.3519247324318389 
333.0567321777344 0.05887396040432219 
345.06756591796875 0.01419972586226258 
345.9881286621094 0.00961946204887583 
346.0726013183594 0.013639897331331242 
346.9382019042969 0.02800935648896834 
346.98248291015625 0.03693334065117459 
347.075439453125 1.0 
347.19512939453125 0.012185403567768704 
348.07861328125 0.16926044642203594 
349.08990478515625 0.014796338657455924 
END IONS

BEGIN IONS
CHARGE=1+
PRECURSOR_MZ=419.0972727759999
COMPOUND_NAME=challenge_146
FORMULA=C20H18O10
SMILES=O=C1C(O[C@@H]2O[C@@H](CO)[C@H](O)[C@H]2O)=C(C3=CC=C(O)C=C3)OC4=CC(O)=CC(O)=C41
INCHIKEY=POQICXMTUPVZMX-UXYNSRGZSA-N
ADDUCT=[M+H]+
IONMODE=positive
PARENT_MASS=418.0899967759999
55.01913833618164 0.021483203476372257 
57.03495407104492 0.02416247716470556 
73.02992248535156 0.018861084192742482 
85.02958679199219 0.013761631015520182 
102.81074523925781 0.010647459083506597 
133.05215454101562 0.03284627177713969 
153.02130126953125 0.016841185739222893 
186.99034118652344 0.01066849476156391 
286.95330810546875 0.018150677694097832 
286.9841003417969 0.028117150706862576 
287.0545349121094 1.0 
288.05743408203125 0.1577220512500885 
END IONS

BEGIN IONS
CHARGE=1+
PRECURSOR_MZ=355.1539998039999
COMPOUND_NAME=challenge_148
FORMULA=C21H22O5
SMILES=OC1=CC(OC)=C2C(CC(OC2=C1C/C=C(C)\C)C3=CC=C(C=C3)O)=O
INCHIKEY=YKGCBLWILMDSAV-UHFFFAOYSA-N
ADDUCT=[M+H]+
IONMODE=positive
PARENT_MASS=354.1467238039999
80.52760314941406 0.007973185666457492 
80.54013061523438 0.007587829482775218 
107.0516357421875 0.02340796231655661 
147.0478057861328 0.017979340557568065 
151.04095458984375 0.014157092174954006 
178.9608154296875 0.014244868175692057 
179.03343200683594 1.0 
180.0364227294922 0.08902483416111642 
193.0524444580078 0.012880815781568664 
197.04856872558594 0.023497770356154715 
235.09568786621094 0.04851669241232511 
273.0799865722656 0.01356292484793274 
299.0899963378906 0.14661124442004078 
300.10040283203125 0.020129473048173054 
315.0968017578125 0.01203305306888843 
355.1530456542969 0.5210720563486744 
356.15496826171875 0.10781872842891167 
368.5357360839844 0.010138301484037394 
END IONS

BEGIN IONS
CHARGE=1+
PRECURSOR_MZ=195.0651848
COMPOUND_NAME=challenge_150
FORMULA=C10H10O4
SMILES=O=C(O)/C=C/C1=CC=C(O)C(OC)=C1
INCHIKEY=KSEBMYQBYZTDHS-HWKANZROSA-N
ADDUCT=[M+H]+
IONMODE=positive
PARENT_MASS=194.0579088
52.725257873535156 0.008396109571601714 
55.935935974121094 0.012060154887690943 
61.012168884277344 0.01726106890804754 
72.93946075439453 0.04041718817025549 
79.02381134033203 0.011172301918716184 
82.93519592285156 0.01953698007974797 
83.93148040771484 0.021604449668430822 
84.93929290771484 0.011707804556220771 
85.94781494140625 0.011232387243843707 
89.04150390625 0.03972299980234917 
90.9502944946289 0.02120923800292732 
105.91902923583984 0.014681943770407494 
107.05194854736328 0.01212743920121701 
111.97054290771484 0.011723840200919815 
113.94640350341797 0.018708235741733362 
113.96705627441406 0.11690281861251633 
117.03691864013672 0.1833564878526641 
117.9184341430664 0.011572272595108664 
118.9283218383789 0.04184845788246112 
125.9670181274414 0.014964564888697199 
131.95489501953125 0.023150747092705624 
131.97808837890625 0.027220082517423604 
133.0319061279297 0.03190723009185364 
134.03924560546875 0.03016218349089897 
135.04383850097656 0.05953836514317715 
141.9741668701172 0.035429938831746756 
145.00477600097656 0.03404755586201236 
145.03273010253906 0.48443445669691615 
146.03622436523438 0.04527608766012553 
149.05953979492188 0.10264064801032392 
150.06640625 0.009784878672673835 
151.04107666015625 0.014993893840260323 
155.98130798339844 0.01177665622129405 
163.0380859375 0.053775287336251774 
170.97836303710938 0.06065292436831387 
172.97938537597656 0.017092558576561168 
177.0214385986328 0.05459966502863687 
177.05410766601562 1.0 
178.02793884277344 0.010302699559614858 
178.0574951171875 0.09195817052190801 
179.03875732421875 0.036576942022961696 
193.04859924316406 0.07938986465238024 
194.05592346191406 0.1300497043247911 
194.11636352539062 0.06442687625635637 
195.06753540039062 0.02036342788561669 
END IONS

BEGIN IONS
CHARGE=1+
PRECURSOR_MZ=247.12297444799998
COMPOUND_NAME=challenge_152
FORMULA=C17H14N2
SMILES=CC1=C(C=NC=C2)C2=C(C)C(N3)=C1C4=C3C=CC=C4
INCHIKEY=CTSPAMFJBXKSOY-UHFFFAOYSA-N
ADDUCT=[M+H]+
IONMODE=positive
PARENT_MASS=246.115698448
61.65495681762695 0.004104725078878438 
61.77915573120117 0.006301042627842601 
61.90610885620117 0.0038105357129568996 
62.030128479003906 0.0036862526416835337 
149.8063201904297 0.0025826667888290272 
231.0991668701172 0.007952575269377307 
232.0989532470703 0.053443356351946664 
233.111328125 0.009216657116918681 
247.0082244873047 0.012024736017680676 
247.0409698486328 0.030053598270627455 
247.06834411621094 0.04595483093225384 
247.12240600585938 1.0 
248.125732421875 0.17837577390165496 
249.13987731933594 0.005586986266966305 
END IONS

BEGIN IONS
CHARGE=1+
PRECURSOR_MZ=193.049534736
COMPOUND_NAME=challenge_153
FORMULA=C10H8O4
SMILES=O=C1C=CC2=CC(O)=C(OC)C=C2O1
INCHIKEY=SYTYLPHCLSSCOJ-UHFFFAOYSA-N
ADDUCT=[M+H]+
IONMODE=positive
PARENT_MASS=192.042258736
59.8917350769043 0.004835549172274312 
105.03630828857422 0.010444753726600278 
122.03887939453125 0.009270190550462746 
133.00762939453125 0.01060232567181244 
133.0281219482422 0.19841295493657932 
134.03543090820312 0.016098051447550984 
137.05929565429688 0.053546347420221775 
138.065673828125 0.005024075938202246 
149.02716064453125 0.012262095470609139 
149.06356811523438 0.006891562082249221 
150.0334930419922 0.007360142469150897 
164.04603576660156 0.023057650777869247 
165.05389404296875 0.02662747080933622 
178.02581787109375 0.13434319474729833 
179.03269958496094 0.009111207314122976 
192.04690551757812 0.013401543098834576 
192.9705810546875 0.010969621717526157 
192.99391174316406 0.03146393108190404 
193.01210021972656 0.04491231785911129 
193.049072265625 1.0 
194.05258178710938 0.10188825761722012 
194.11770629882812 0.007083846195668562 
END IONS

BEGIN IONS
CHARGE=1+
PRECURSOR_MZ=280.133204784
COMPOUND_NAME=challenge_154
FORMULA=C18H17NO2
SMILES=CN1CCC(C2=C3C4=CC=CC=C4C[C@@]12[H])=CC5=C3OCO5
INCHIKEY=JCTYWRARKVGOBK-CQSZACIVSA-N
ADDUCT=[M+H]+
IONMODE=positive
PARENT_MASS=279.125928784
62.2746696472168 0.006572192594300769 
65.98283386230469 0.010051058480107396 
105.0736312866211 0.005997626932888909 
135.9974822998047 0.005876763355697028 
174.16261291503906 0.006356117162198373 
178.07730102539062 0.013919276311721192 
179.08448791503906 0.01821759890072027 
189.07281494140625 0.008874389180278077 
190.0771026611328 0.01181250305652994 
191.0850067138672 0.22890981710937344 
192.08738708496094 0.03596548682590127 
193.10145568847656 0.013085836694505845 
201.06834411621094 0.009153739597441366 
202.0775909423828 0.007383606171573484 
203.08375549316406 0.02998191898346584 
207.0811767578125 0.031589928440824165 
219.07997131347656 0.2327555632886605 
220.08412170410156 0.037701993686068004 
221.09588623046875 0.012145211708399162 
229.0762939453125 0.010828013076693944 
231.0794219970703 0.009490646241620056 
238.09097290039062 0.007224888434131123 
249.0904083251953 1.0 
250.09353637695312 0.16007155917583424 
251.09817504882812 0.011220740072542318 
280.13250732421875 0.49817234665919763 
281.1357727050781 0.09946501000723058 
END IONS

BEGIN IONS
CHARGE=1+
PRECURSOR_MZ=285.075749484
COMPOUND_NAME=challenge_156
FORMULA=C16H12O5
SMILES=O=C(C(C1=CC=C(O)C=C1)=CO2)C3=C2C=C(O)C(OC)=C3
INCHIKEY=DXYUAIFZCFRPTH-UHFFFAOYSA-N
ADDUCT=[M+H]+
IONMODE=positive
PARENT_MASS=284.06847348400004
76.87222290039062 0.004486964140453654 
139.54197692871094 0.004832550394507281 
162.0490264892578 0.004621737042475173 
167.0371551513672 0.006528882341110131 
168.06288146972656 0.005180275007062908 
169.07003784179688 0.014592029694469029 
182.9857177734375 0.005049256438929245 
186.07264709472656 0.005352941630265524 
196.05441284179688 0.005697990243066312 
197.06126403808594 0.027203133786467368 
214.06610107421875 0.009327526443826763 
225.06239318847656 0.02668399316307641 
229.08570861816406 0.032853857651114635 
242.05740356445312 0.054512339919841495 
243.06507873535156 0.010857392673978002 
250.0748291015625 0.005972200043364623 
257.083251953125 0.0051307254565536335 
270.051513671875 0.16524858099106843 
271.05523681640625 0.02620079072258416 
284.97515869140625 0.029787857703101047 
285.0087890625 0.04762855664835921 
285.07489013671875 1.0 
286.0785217285156 0.18373935645649242 
287.0918884277344 0.014632092567846176 
END IONS

BEGIN IONS
CHARGE=1+
PRECURSOR_MZ=282.14885484800004
COMPOUND_NAME=challenge_158
FORMULA=C18H19NO2
SMILES=OC1=C(OC)C=C2CCN(C)[C@@]3([H])CC4=CC=CC=C4C1=C23
INCHIKEY=YXVXMURDCBMPRH-AWEZNQCLSA-N
ADDUCT=[M+H]+
IONMODE=positive
PARENT_MASS=281.14157884800005
62.77973175048828 0.007108242969333135 
165.0692901611328 0.0090828257553654 
178.07644653320312 0.009113904155835295 
180.0932159423828 0.008631399788167434 
190.0784149169922 0.021184459279331654 
191.08506774902344 0.24390732589021863 
191.12429809570312 0.013985598685674127 
192.0891876220703 0.05075220538526868 
194.07215881347656 0.016745771666483125 
195.07945251464844 0.022383280547043093 
201.06942749023438 0.02172129253893883 
208.08755493164062 0.031129541809565425 
218.0746612548828 0.008642537955682657 
219.07948303222656 0.45309370803446464 
220.08416748046875 0.0734361686840897 
221.09230041503906 0.01583140595232964 
229.07704162597656 0.025857944821261476 
236.08230590820312 0.08646142709182411 
237.08934020996094 0.018732445700969703 
251.04412841796875 0.010897954587704324 
251.10589599609375 1.0 
252.1090850830078 0.18763516420590753 
253.11026000976562 0.011219195787100119 
282.0752258300781 0.01579534155693219 
282.1478271484375 0.43937599674937483 
283.15167236328125 0.08526880483114452 
END IONS

BEGIN IONS
CHARGE=1+
PRECURSOR_MZ=517.134052208
COMPOUND_NAME=challenge_159
FORMULA=C25H24O12
SMILES=O=C([C@@]1(O)C[C@@H](OC(/C=C/C2=CC=C(O)C(O)=C2)=O)[C@H](OC(/C=C/C3=CC=C(O)C(O)=C3)=O)[C@H](O)C1)O
INCHIKEY=UFCLZKMFXSILNL-PSEXTPKNSA-N
ADDUCT=[M+H]+
IONMODE=positive
PARENT_MASS=516.1267762079999
55.698646545410156 0.010758262362545325 
79.0562515258789 0.012879584033036524 
89.04063415527344 0.0195875584080489 
90.99146270751953 0.009917115329670208 
103.43396759033203 0.01145054537471856 
107.052001953125 0.020078732484835708 
117.03679656982422 0.044959343752743894 
135.0437469482422 0.10785619259325337 
145.0281524658203 0.10007784281339487 
163.0099639892578 0.05362826189527093 
163.03858947753906 1.0 
164.04202270507812 0.08166038142191022 
319.087646484375 0.012134901410603633 
499.1246032714844 0.07751663386828793 
500.1400146484375 0.025841442673307548 
END IONS

BEGIN IONS
CHARGE=1+
PRECURSOR_MZ=271.06009942000003
COMPOUND_NAME=challenge_160
FORMULA=C15H10O5
SMILES=O=C1C(C2=CC=C(O)C=C2)=COC3=CC(O)=C(O)C=C13
INCHIKEY=GYLUFQJZYAJQDI-UHFFFAOYSA-N
ADDUCT=[M+H]+
IONMODE=positive
PARENT_MASS=270.05282342000004
67.7608413696289 0.005771546114474821 
67.76802062988281 0.005681715386905366 
93.03527069091797 0.005615759172013454 
141.0722198486328 0.010743882340786232 
145.03062438964844 0.011072323185993008 
153.0221405029297 0.024494110081137922 
169.0644073486328 0.04891969945390633 
170.07261657714844 0.006423589920759961 
197.05886840820312 0.04854632063003401 
198.06954956054688 0.006693096726624345 
215.07005310058594 0.06683122918043465 
216.07630920410156 0.007890425098056491 
219.3944091796875 0.008381839996871107 
225.06129455566406 0.02067197621536464 
236.74432373046875 0.0056914921569607285 
243.0720977783203 0.017640276303703194 
253.05674743652344 0.017001481076770963 
270.9676818847656 0.02995790065477786 
270.9972839355469 0.039496739038928426 
271.0592346191406 1.0 
272.0626525878906 0.16964171216431545 
273.0735778808594 0.014328225325732637 
END IONS

BEGIN IONS
CHARGE=1+
PRECURSOR_MZ=166.049869084
COMPOUND_NAME=challenge_161
FORMULA=C8H7NO3
SMILES=O=C1OC2=CC(OC)=CC=C2N1
INCHIKEY=MKMCJLMBVKHUMS-UHFFFAOYSA-N
ADDUCT=[M+H]+
IONMODE=positive
PARENT_MASS=165.042593084
50.72030258178711 0.005881071256145578 
63.559356689453125 0.004348845031008897 
82.01605224609375 0.005060533313583677 
83.931884765625 0.008881757014063081 
83.94305419921875 0.005932834953183689 
84.94922637939453 0.017565070235113323 
84.9622573852539 0.2080093055969317 
95.0519027709961 0.0693570357896246 
100.02627563476562 0.008325506411903343 
102.97282409667969 0.009794618145780943 
106.02922821044922 0.02662328403326991 
107.0386962890625 0.00784837521888451 
109.05503845214844 0.01579212843705681 
110.06307220458984 0.06371281957493334 
122.06343078613281 0.02974446203780969 
123.04450225830078 0.02662266024901157 
124.9594955444336 0.005520285184071471 
125.96964263916016 0.006032404089593916 
125.98949432373047 0.014378690141329885 
126.95860290527344 0.01791310026565114 
138.05889892578125 0.03182664280265857 
141.982177734375 0.005500047889996793 
142.97142028808594 0.03711709294400974 
146.63450622558594 0.005279272620535302 
150.0229034423828 0.09151820527388133 
151.0301055908203 0.043667257374649195 
165.01309204101562 0.009821749295550734 
165.04153442382812 0.21309674584449897 
165.9853515625 0.008911214186022868 
166.0057373046875 0.035074579313242475 
166.02003479003906 0.049153268039552424 
166.04930114746094 1.0 
167.0529022216797 0.08346544437037645 
END IONS

BEGIN IONS
CHARGE=1+
PRECURSOR_MZ=137.10732438399998
COMPOUND_NAME=challenge_162
FORMULA=C8H12N2
SMILES=CC1=C(C)N=C(C)C(C)=N1
INCHIKEY=FINHMKGKINIASC-UHFFFAOYSA-N
ADDUCT=[M+H]+
IONMODE=positive
PARENT_MASS=136.100048384
53.11032485961914 0.002823080612242636 
55.05602264404297 0.010846064270734554 
69.07177734375 0.008507305700220076 
96.08076477050781 0.018601291374836883 
122.08880615234375 0.002952705833470401 
137.0596466064453 0.01022702428136257 
137.07398986816406 0.03206819533078836 
137.08493041992188 0.049327458672339265 
137.10691833496094 1.0 
138.1103515625 0.08967442994176543 
END IONS

BEGIN IONS
CHARGE=1+
PRECURSOR_MZ=243.101570308
COMPOUND_NAME=challenge_163
FORMULA=C15H14O3
SMILES=O=C(C(CC=C(C)C)=C1O)C2=CC=CC=C2C1=O
INCHIKEY=CIEYTVIYYGTCCI-UHFFFAOYSA-N
ADDUCT=[M+H]+
IONMODE=positive
PARENT_MASS=242.094294308
57.07167434692383 0.020323827295798312 
75.27264404296875 0.009541072477239383 
103.05633544921875 0.016395586364871862 
105.03632354736328 0.03230714110720909 
114.96027374267578 0.025741253926822482 
119.92001342773438 0.010465379182482333 
131.05162048339844 0.015539785038729182 
133.03224182128906 0.02884199098493722 
155.05445861816406 0.03950249322231344 
159.01611328125 0.033216640580085256 
159.04920959472656 0.4719034906815191 
160.05274963378906 0.03987664751474893 
169.10443115234375 0.015205166031769614 
173.06427001953125 0.017918400753852006 
178.96505737304688 0.02802467233288429 
179.0897979736328 0.02262384137584749 
181.06944274902344 0.02119879180300617 
183.04989624023438 0.11493283135421552 
183.08546447753906 0.046367262172218475 
184.05160522460938 0.017127234422921255 
186.98663330078125 0.03324307725594209 
187.00326538085938 0.053819451465549006 
187.0386199951172 0.9699567083718503 
188.04884338378906 0.13221453525088775 
197.10020446777344 0.024746035636040414 
201.0614013671875 0.1183212489333538 
202.063232421875 0.013091800902943018 
207.08522033691406 0.023561079569944427 
225.09005737304688 0.17288597586660415 
226.09689331054688 0.014140418851131842 
241.08673095703125 0.01348872519176218 
242.29217529296875 0.03146372168372272 
243.02101135253906 0.032081686049172255 
243.10081481933594 1.0 
243.22137451171875 0.01712837516764624 
243.2919464111328 0.013565910041842117 
244.1045379638672 0.1657768015279248 
245.1342315673828 0.023157224342329735 
END IONS

BEGIN IONS
CHARGE=1+
PRECURSOR_MZ=801.4994829840001
COMPOUND_NAME=challenge_164
FORMULA=C42H72O14
SMILES=C[C@]12[C@](CC=C3[C@@]2([H])CC[C@H](O[C@]4([H])O[C@@H]([C@@H](O)[C@H](O)[C@H]4O)CO)C3(C)C)([H])[C@]5([C@@](C)([C@]([C@H](C)CC[C@H](C(C)(O)C)O[C@@H]6O[C@@H]([C@@H](O)[C@H](O)[C@H]6O)CO)([H])CC5)C[C@H]1O)C
INCHIKEY=WVXIMWMLKSCVTD-JLRHFDOOSA-N
ADDUCT=[M+H]+
IONMODE=positive
PARENT_MASS=800.4922069840001
67.05610656738281 0.09215416525593731 
69.03561401367188 0.08705324346251418 
69.07182312011719 0.1470931647547761 
70.06707763671875 0.11459219149243455 
70.9267349243164 0.035943716564461596 
71.05054473876953 0.08400076019680192 
72.08259582519531 0.05418931662328322 
81.07209014892578 0.22497297224173132 
83.08712005615234 0.0724600389380092 
84.08244323730469 0.08576807841062377 
85.0307846069336 0.3807081303981144 
86.09881591796875 0.06918554977234805 
93.07183074951172 0.10518585208491708 
95.08560943603516 0.38561070458306357 
97.0296630859375 0.07759059231092688 
97.10362243652344 0.045596546089859046 
105.07258605957031 0.13174344291114917 
107.08856964111328 0.21693062493337786 
109.10115051269531 0.3745865670506982 
119.0884017944336 0.27099162155151046 
121.10152435302734 0.2610452436719472 
123.12037658691406 0.17894981360836199 
127.04148864746094 0.08037682193896155 
127.1117935180664 0.22227533203339556 
129.10470581054688 0.05222201460544859 
131.08717346191406 0.08873008554312109 
133.1013946533203 0.21671458449276185 
135.12063598632812 0.23523517500371707 
137.1360626220703 0.10308489872622882 
145.0535125732422 0.11675690167632852 
145.10507202148438 0.1718196805419806 
147.12046813964844 0.20061089748190603 
149.13670349121094 0.13931475379281086 
157.10498046875 0.07524340326667926 
159.12106323242188 0.17617584370383815 
160.1204833984375 0.05767149693510044 
161.13702392578125 0.1956587990243327 
163.06475830078125 0.06531776749276222 
163.15122985839844 0.12152989543755408 
171.11924743652344 0.07313410452787444 
173.1371612548828 0.17304065819089195 
175.1532745361328 0.16980208704021652 
179.14678955078125 0.07166703993845275 
185.13604736328125 0.10271290301609866 
187.1474151611328 0.201835664215223 
189.16355895996094 0.2808469674610968 
191.1499481201172 0.05102466784760841 
191.18553161621094 0.11452920970722089 
201.1691131591797 0.1715673306520394 
203.1787872314453 0.18127214657205604 
207.17628479003906 0.06367145729063053 
215.18556213378906 0.0876463056301786 
217.2006378173828 0.04800597710841879 
220.266845703125 0.054208152443696395 
227.18173217773438 0.05026492510952959 
233.19615173339844 0.05582642811843839 
241.20159912109375 0.05148518251925638 
289.95526123046875 0.038808886755728314 
325.12066650390625 0.08958581580991397 
405.3531799316406 0.19771786890870235 
406.3567810058594 0.05082296564684556 
423.36090087890625 1.0 
424.35931396484375 0.22291355789514294 
441.3716125488281 0.9234695136531671 
442.3748474121094 0.32244231479112 
459.3814697265625 0.5677748204130565 
460.3848571777344 0.228662569695667 
477.40765380859375 0.07909827212740743 
585.435302734375 0.07447425044708064 
603.4228515625 0.2544603316682656 
604.4479370117188 0.11619887288204274 
END IONS

BEGIN IONS
CHARGE=1+
PRECURSOR_MZ=217.049534736
COMPOUND_NAME=challenge_165
FORMULA=C12H8O4
SMILES=O=C1OC(C(C=C1)=C2)=C(OC)C3=C2C=CO3
INCHIKEY=QXKHYNVANLEOEG-UHFFFAOYSA-N
ADDUCT=[M+H]+
IONMODE=positive
PARENT_MASS=216.042258736
52.33127212524414 0.005293719417895279 
52.336181640625 0.005155969510484252 
53.92579650878906 0.0056795542532459145 
54.260040283203125 0.01284973377978665 
115.05570220947266 0.010864919779273851 
117.07327270507812 0.007294768062551719 
131.05162048339844 0.008363028610158352 
145.06890869140625 0.00688812361220061 
146.04002380371094 0.007613173999898301 
158.03909301757812 0.010075747335044214 
161.05905151367188 0.10448624217300191 
162.06607055664062 0.012894418518473736 
173.0275421142578 0.01803513036204442 
173.06460571289062 0.022117659404588305 
174.0305633544922 0.0865876155871466 
175.04075622558594 0.008394974471572038 
185.02906799316406 0.037795242777728826 
189.05491638183594 0.03553530422517108 
201.02517700195312 0.007002526998836923 
202.02565002441406 0.3048543081864553 
203.02804565429688 0.027585967888520888 
216.041259765625 0.03374227797197353 
216.95228576660156 0.008409622659975195 
216.9830780029297 0.030939567102657484 
217.00430297851562 0.04711421578630399 
217.04901123046875 1.0 
218.05201721191406 0.1295829057235555 
END IONS

BEGIN IONS
CHARGE=1+
PRECURSOR_MZ=433.1493083479999
COMPOUND_NAME=challenge_166
FORMULA=C22H24O9
SMILES=O=C1C(OC)=C(C2=CC=C(OC)C(OC)=C2)OC3=C(OC)C(OC)=C(OC)C(OC)=C13
INCHIKEY=SSXJHQZOHUYEGD-UHFFFAOYSA-N
ADDUCT=[M+H]+
IONMODE=positive
PARENT_MASS=432.14203234799993
88.29790496826172 0.012127802477245752 
112.9268569946289 0.012218475742639035 
165.0595245361328 0.04405920322435161 
183.03460693359375 0.01705548160198679 
211.02816772460938 0.015873149670916076 
311.06298828125 0.0175124793014879 
314.08746337890625 0.017387088495645756 
339.05682373046875 0.016978373832564064 
342.0824279785156 0.020166156413333927 
345.06011962890625 0.06422897336708416 
357.0994567871094 0.02013527677389487 
360.09075927734375 0.031213217174800054 
373.0662536621094 0.046689412889568745 
385.0926208496094 0.0698839803977701 
387.08843994140625 0.038378794229058884 
388.0899963378906 0.03784441892393641 
403.1017150878906 0.7126107988944852 
404.1041564941406 0.15049365909841167 
405.11859130859375 0.014178275296686976 
417.1305236816406 0.05850309904798468 
418.1246032714844 0.08870182552075896 
419.1406555175781 0.01658172292322438 
433.01617431640625 0.02445547885380889 
433.1482238769531 1.0 
434.15191650390625 0.20006283447234652 
435.1614074707031 0.02156453477250401 
END IONS

BEGIN IONS
CHARGE=1+
PRECURSOR_MZ=237.075749484
COMPOUND_NAME=challenge_167
FORMULA=C12H12O5
SMILES=O=C1C=CC2=CC(OC)=C(OC)C(OC)=C2O1
INCHIKEY=RAYQKHLZHPFYEJ-UHFFFAOYSA-N
ADDUCT=[M+H]+
IONMODE=positive
PARENT_MASS=236.068473484
59.2657356262207 0.010276599019137798 
59.271854400634766 0.006924000184470247 
76.5914077758789 0.005801499833360409 
101.95834350585938 0.004627008191425523 
119.05149841308594 0.006994112086147165 
133.03060913085938 0.006367209048815934 
135.04579162597656 0.005232842574786395 
147.04788208007812 0.018557317470212897 
148.0514373779297 0.043524909977198774 
151.04315185546875 0.012258387727841668 
161.0258026123047 0.011201186652190815 
163.0433349609375 0.02025515504085862 
164.04905700683594 0.0069205908969436495 
165.05679321289062 0.010154453520101754 
166.06654357910156 0.017210728694897218 
175.04396057128906 0.018123076325335073 
176.04612731933594 0.12478411697967173 
177.05264282226562 0.024065882734157242 
178.06198120117188 0.038194806744302666 
179.03909301757812 0.014912859271214848 
181.09188842773438 0.015800659481132302 
183.91632080078125 0.006005606503170555 
191.0342559814453 0.035489604507237704 
192.04258728027344 0.011864160997178354 
193.0498046875 0.08670593043226354 
194.06076049804688 0.02051784903729865 
203.03724670410156 0.009323359199892224 
204.04180908203125 0.04417890157873952 
207.028076171875 0.11199555202171026 
208.03814697265625 0.014339196427352843 
209.08433532714844 0.012084844261324338 
213.92669677734375 0.008045287060358753 
221.0438690185547 0.027327277624199328 
222.05160522460938 0.1133082625500304 
223.06138610839844 0.011205255646484565 
236.02638244628906 0.0056535380617372165 
236.069091796875 0.026968281573799765 
236.9984893798828 0.023448067002763532 
237.02371215820312 0.03383833439216614 
237.07516479492188 1.0 
238.07919311523438 0.13467759972069707 
239.08407592773438 0.011492131782638576 
END IONS

BEGIN IONS
CHARGE=1+
PRECURSOR_MZ=200.070604528
COMPOUND_NAME=challenge_168
FORMULA=C12H9NO2
SMILES=COC1=C2C(OC=C2)=NC3=CC=CC=C13
INCHIKEY=WIONIXOBNMDJFJ-UHFFFAOYSA-N
ADDUCT=[M+H]+
IONMODE=positive
PARENT_MASS=199.063328528
50.0159912109375 0.006356108085506059 
54.11007308959961 0.002346544065422637 
54.68742370605469 0.0023922557554313193 
56.9661979675293 0.0020690682307414002 
59.969871520996094 0.00235055671959918 
91.1719970703125 0.002186099809948358 
128.9326934814453 0.0024746096151145266 
128.9539031982422 0.007457735456798792 
129.06088256835938 0.007680258656839083 
135.51145935058594 0.0024527860064922245 
144.08326721191406 0.003522560845177682 
158.96556091308594 0.0029295734681953735 
184.99549865722656 0.007514312705723619 
185.01161193847656 0.009302087371194012 
185.04685974121094 0.2340510833948155 
186.05032348632812 0.02719818034234323 
199.9587860107422 0.003481332849574165 
199.98709106445312 0.012565945752516346 
200.0109405517578 0.026794028730003767 
200.03024291992188 0.040769964340082517 
200.07009887695312 1.0 
200.12039184570312 0.015495520124530515 
201.07339477539062 0.12689571533396504 
202.08062744140625 0.004149553801773247 
END IONS

BEGIN IONS
CHARGE=1+
PRECURSOR_MZ=839.29682
COMPOUND_NAME=challenge_170
FORMULA=C39H50O20
SMILES=O[C@H]1[C@H](O)[C@@H](O)[C@H](OC2=CC(O)=C(C(C(O[C@H]3[C@H](O)[C@H](O[C@@]4([H])[C@H](O)[C@@H](O)[C@H](O)[C@@H](CO)O4)[C@@H](O)[C@H](C)O3)=C(C5=CC=C(OC)C=C5)O6)=O)C6=C2C/C=C(C)/C)O[C@@H]1CO
INCHIKEY=NLVBYGTTYRFJKH-YFNAFYFCSA-N
ADDUCT=[M+H]+
IONMODE=positive
PARENT_MASS=838.289544
59.01902389526367 0.046147047340640415 
61.03007507324219 0.03701363913877048 
69.0359115600586 0.06646262133517064 
71.05149841308594 0.08085989038611749 
73.03031158447266 0.036547163233792035 
81.03467559814453 0.03298234762538646 
81.80403900146484 0.017481935748229538 
85.03112030029297 0.4829582614944183 
86.03288269042969 0.01893375688764526 
91.04088592529297 0.027689205942373486 
97.03121948242188 0.11375495516884991 
99.04634857177734 0.02508820068366683 
109.03099822998047 0.025472617231429913 
127.04316711425781 0.08582959438377669 
129.05751037597656 0.030117484395849967 
129.2037353515625 0.015988853071413702 
133.05258178710938 0.026779306759480113 
144.47268676757812 0.019032675310618294 
145.05389404296875 0.1520846567939807 
146.0563201904297 0.01638468000331233 
163.06423950195312 0.056511513798487054 
179.0590362548828 0.02292201327711925 
273.1061096191406 0.01572722307702607 
312.95184326171875 0.022281455392244527 
313.0697326660156 0.8646541621968555 
314.07379150390625 0.1720716842145929 
320.04132080078125 0.01979339601345297 
369.1319885253906 1.0 
370.1354064941406 0.17912674751172342 
371.14300537109375 0.019570346522612747 
531.1845703125 0.8484258802766904 
532.1890258789062 0.21984466932011199 
533.2078857421875 0.022782498245122094 
610.1007690429688 0.017590568255092344 
677.2440185546875 0.11769400685850034 
678.2564086914062 0.024676174284299347 
END IONS

BEGIN IONS
CHARGE=1+
PRECURSOR_MZ=717.1450108160001
COMPOUND_NAME=challenge_174
FORMULA=C36H28O16
SMILES=O=C(O[C@H]1[C@@H](C2=C(C=C([C@@H]3[C@H](O)CC4=C(O)C=C(O)C=C4O3)C=C(O)C5=O)C5=C(O)C(O)=C2)OC6=CC(O)=CC(O)=C6C1)C7=CC(O)=C(O)C(O)=C7
INCHIKEY=GPLOTACQBREROW-WQLSNUALSA-N
ADDUCT=[M+H]+
IONMODE=positive
PARENT_MASS=716.137734816
78.9454345703125 0.012265385573800566 
111.04623413085938 0.02642135328419825 
123.04602813720703 0.019401927440122636 
139.00582885742188 0.03584056076698484 
139.01605224609375 0.050690050732151014 
139.03854370117188 1.0 
140.04600524902344 0.07782051967676087 
143.03591918945312 0.028092473485138252 
151.0434112548828 0.11968466452203227 
153.022705078125 0.3703913540553073 
154.0243682861328 0.022442809755659075 
163.0382537841797 0.14760025774824592 
164.04454040527344 0.02073195249154012 
181.04905700683594 0.06796477068651116 
213.05885314941406 0.024763170604516264 
225.0618133544922 0.016158538726831498 
229.05650329589844 0.039908049070371536 
241.0560760498047 0.026472974814579334 
245.04498291015625 0.014590364816874283 
253.05288696289062 0.0181516117427223 
255.06890869140625 0.02104173637793343 
257.04876708984375 0.026201874937309095 
259.0681457519531 0.018222766742038713 
271.0682373046875 0.050160197694515116 
277.0697937011719 0.09837854182833554 
278.08074951171875 0.01560043512084181 
283.06707763671875 0.015005928666982579 
289.0730895996094 0.01934309317326007 
301.0792236328125 0.015095413644884747 
333.0606384277344 0.17527737389127904 
334.0736999511719 0.03659961580649346 
365.0689392089844 0.0171091442991056 
367.0957336425781 0.03146496252287288 
379.081298828125 0.02415637350546192 
391.08941650390625 0.028289662643712066 
403.0911560058594 0.01654979207187822 
407.0748596191406 0.05686651090729868 
408.0950012207031 0.03348459711782004 
409.1054382324219 0.04941238708415907 
427.1134033203125 0.016032697399550568 
441.0940856933594 0.03699771673810877 
546.150390625 0.014086917451590367 
579.1133422851562 0.17787718656691204 
580.1346435546875 0.05305176378294041 
591.1248779296875 0.020462529295143275 
END IONS

BEGIN IONS
CHARGE=1+
PRECURSOR_MZ=407.0972727759999
COMPOUND_NAME=challenge_175
FORMULA=C19H18O10
SMILES=OC1=C(C(C2=C3)=O)C(OC2=CC=C3O)=CC(O)=C1[C@@H]([C@@H]([C@H]4O)O)O[C@@H]([C@H]4O)CO
INCHIKEY=KRCBALDMBZQTIQ-ZJKJAXBQSA-N
ADDUCT=[M+H]+
IONMODE=positive
PARENT_MASS=406.0899967759999
113.23627471923828 0.03132330566948266 
207.95359802246094 0.042162477503609096 
241.04852294921875 0.24908101066702779 
242.05831909179688 0.04447901508944439 
245.04881286621094 0.0632931293133333 
255.069091796875 0.06244327291899888 
257.04351806640625 1.0 
258.0469055175781 0.18389219522945796 
269.0421447753906 0.1982185629603525 
270.0552062988281 0.047481347014868794 
279.18597412109375 0.03340522671486289 
281.0530700683594 0.047388558389179984 
283.0619201660156 0.3018878079757222 
284.0737609863281 0.04725595419075998 
287.0539245605469 0.8873417082825934 
288.0654296875 0.0957784169547233 
297.0831604003906 0.06859524254272746 
307.0667724609375 0.06461841559003811 
311.05389404296875 0.4488430632947265 
312.0677185058594 0.09646407649243488 
323.0533447265625 0.18136873676163864 
335.06787109375 0.12049746206462751 
341.064208984375 0.20135011678254292 
342.076416015625 0.038560800091135876 
353.0635070800781 0.20795846428995324 
354.0826721191406 0.05347356415902713 
371.0738220214844 0.19875455156496974 
389.0840759277344 0.3300065646063406 
390.0966491699219 0.07672506207749007 
407.09381103515625 0.22306560449540896 
END IONS

BEGIN IONS
CHARGE=1+
PRECURSOR_MZ=523.269029556
COMPOUND_NAME=challenge_176
FORMULA=C31H38O7
SMILES=CC(O[C@@]1(C(/C(C)=C\[C@@H](C2(C)C)[C@@H]2CCC3=C)=O)[C@]([C@H]3OC(C)=O)([H])[C@@H](OC(C4=CC=CC=C4)=O)[C@@H](C)C1)=O
INCHIKEY=JPYYWXPAHJBKJX-JNRDNZLTSA-N
ADDUCT=[M+H]+
IONMODE=positive
PARENT_MASS=522.2617535559999
53.040035247802734 0.02491174282558374 
55.055503845214844 0.02455082904082934 
57.071407318115234 0.027300434658554397 
57.93705368041992 0.012492178354550522 
67.05633544921875 0.042036893868546324 
69.07200622558594 0.048601226277459476 
77.04029083251953 0.013257056349120389 
79.05667114257812 0.03131763881431855 
81.07228088378906 0.07387007638940442 
83.05134582519531 0.01122966465530508 
83.08758544921875 0.019786363613985412 
89.06224060058594 0.014509453959084699 
90.97921752929688 0.036475803697363564 
91.0570297241211 0.04067351746948357 
93.07272338867188 0.06547369462758354 
95.05184936523438 0.061392817192157514 
95.08824920654297 0.056297948741976134 
97.06636047363281 0.014489666044867145 
104.10961151123047 0.02506577809003588 
105.01118469238281 0.023791949479240595 
105.01927947998047 0.06954797551538536 
105.03653717041016 1.0 
105.07271575927734 0.072308907280918 
106.0400390625 0.06273431573306203 
107.08857727050781 0.047224221162078805 
109.06813049316406 0.017163076005836605 
109.1041259765625 0.028588293033636362 
117.07157897949219 0.013949219333853239 
119.08914184570312 0.07260136805483106 
121.10457611083984 0.04328920418143122 
123.11944580078125 0.027145716575362334 
131.08901977539062 0.060956988684030516 
133.1048126220703 0.044967697107332276 
141.07192993164062 0.018861156321970825 
142.08099365234375 0.014781402512319363 
143.08538818359375 0.05857923750879401 
145.10516357421875 0.054659712734595085 
147.0830078125 0.0178190279891654 
147.11949157714844 0.023122161340989347 
154.08148193359375 0.013177325592812513 
155.08531188964844 0.0712602014156938 
156.09628295898438 0.015284434213695396 
157.10577392578125 0.042259368314599505 
159.08670043945312 0.028553410503628848 
159.12094116210938 0.04493210410010423 
161.10089111328125 0.03315832798510513 
161.13600158691406 0.03289489132927653 
167.08872985839844 0.017950474918238764 
168.09515380859375 0.01361965902984671 
169.10606384277344 0.09608312767409105 
170.1094207763672 0.02011400943253759 
171.08901977539062 0.01933968260953118 
171.12205505371094 0.03944909727697833 
173.1005401611328 0.04918754457855611 
173.1371612548828 0.03919873616785556 
175.15109252929688 0.027721114962585267 
181.1046600341797 0.022960284897285806 
182.1120147705078 0.034371750474259964 
183.12185668945312 0.07261065438969405 
184.0818328857422 0.02132112060214946 
184.1267852783203 0.01825745985177931 
185.10145568847656 0.024527070405989986 
185.13604736328125 0.01998703626270202 
187.1169891357422 0.051484208003280074 
189.13380432128906 0.014595554809206822 
193.10491943359375 0.016813678520943943 
195.0846710205078 0.022427055321054663 
195.12147521972656 0.04236239269754157 
196.1272735595703 0.022642248672088687 
197.09861755371094 0.03932925308051859 
197.13816833496094 0.1285610017193618 
198.10723876953125 0.015140383660741519 
198.1423797607422 0.019833028656730485 
199.11566162109375 0.029930700847090753 
199.15188598632812 0.0187396474307097 
201.1302490234375 0.02390831907907438 
207.12039184570312 0.018402348802426513 
210.109130859375 0.03172906908524222 
210.14773559570312 0.016623459049240837 
211.1156463623047 0.04171752139300499 
211.1543731689453 0.04437718163180389 
212.12081909179688 0.015239445966336975 
213.12591552734375 0.0594934470974582 
225.12521362304688 0.1603244433813754 
225.175537109375 0.023331250811084944 
226.13558959960938 0.029247190645149548 
239.14962768554688 0.05640521178707086 
253.1962127685547 0.18302357863344756 
254.2053985595703 0.03242316211332476 
263.1826171875 0.026770726352635228 
271.2122497558594 0.028217095480062165 
281.1889953613281 0.430280078625316 
282.19140625 0.08623910103742535 
299.2015686035156 0.0749017999475374 
306.8988952636719 0.01641369886099058 
313.2226867675781 0.01692739636394976 
341.2269592285156 0.016085726326636258 
363.20367431640625 0.02523231844503137 
375.2434997558594 0.05333170807491554 
376.23797607421875 0.019751812985745153 
403.2391662597656 0.036225304295837764 
435.265869140625 0.02919551077413985 
463.2645263671875 0.03423986100949693 
481.301513671875 0.030845214679041586 
522.3602294921875 0.01812150459036739 
523.2582397460938 0.08204005965823633 
525.2952270507812 0.06471032056289655 
END IONS

BEGIN IONS
CHARGE=1+
PRECURSOR_MZ=479.15478765199987
COMPOUND_NAME=challenge_178
FORMULA=C23H26O11
SMILES=O[C@H]([C@@H](O)[C@@H]1O)[C@@H](O[C@@H]1COC(/C=C/C2=CC(O)=C(O)C=C2)=O)OCCC3=CC(O)=C(O)C=C3
INCHIKEY=LFKQVVDFNHDYNK-FOXCETOMSA-N
ADDUCT=[M+H]+
IONMODE=positive
PARENT_MASS=478.1475116519999
60.502838134765625 0.012611935011309028 
81.03562927246094 0.017897184746322594 
89.04096221923828 0.015983408807585107 
89.06169128417969 0.016488574690027343 
91.89068603515625 0.012726748476160977 
97.9390640258789 0.014038564111616615 
117.03739929199219 0.04202942224672682 
131.052001953125 0.014067128367886692 
133.0890350341797 0.014627691848907757 
135.04396057128906 0.0955900137397403 
145.0328826904297 0.08180435515825556 
163.01026916503906 0.06109293189781866 
163.03857421875 1.0 
164.04750061035156 0.0923255642954902 
165.054931640625 0.021915247821111306 
181.053466796875 0.028308863986593262 
245.08511352539062 0.017790692822595926 
263.0964660644531 0.02331789781238533 
325.0902099609375 0.06887794398189487 
326.10882568359375 0.015356790810182321 
460.2940368652344 0.022754576143978366 
481.2630920410156 0.10057646575715162 
END IONS

BEGIN IONS
CHARGE=1+
PRECURSOR_MZ=565.1551815759998
COMPOUND_NAME=challenge_179
FORMULA=C26H28O14
SMILES=O=C1C=C(C2=CC=C(O)C=C2)OC3=C([C@H]4[C@@H]([C@H]([C@@H]([C@@H](CO)O4)O)O)O)C(O)=C([C@H]5[C@@H]([C@H]([C@H](CO5)O)O)O)C(O)=C13
INCHIKEY=OVMFOVNOXASTPA-VYUBKLCTSA-N
ADDUCT=[M+H]+
IONMODE=positive
PARENT_MASS=564.1479055759997
73.60968780517578 0.06833562219393373 
121.03141784667969 0.18012896792395258 
193.6604461669922 0.0745580732404803 
203.03562927246094 0.09127726164352606 
294.0610656738281 0.1845623052816562 
295.05859375 0.5883177095043199 
296.0723876953125 0.15263790661434412 
297.08001708984375 0.07287295481215272 
307.07135009765625 0.35814288311622766 
308.078369140625 0.19590758822260868 
309.0786437988281 0.12263276693906205 
321.0868835449219 0.19063535247748264 
322.0832214355469 0.07460764898964409 
325.0686950683594 0.5416837057166324 
326.0845947265625 0.10274793574179947 
333.0820617675781 0.15630728275282987 
335.0999755859375 0.080795933813543 
337.0704040527344 0.4775169855191495 
338.0843505859375 0.08267460557347564 
347.0986022949219 0.08604417030771808 
349.08087158203125 0.2623132288316211 
351.09539794921875 0.1826888043834856 
355.0902099609375 0.0970665566799576 
361.0862731933594 0.20291499311173106 
363.0929870605469 0.10052289689850098 
367.0859680175781 0.07265186238488963 
375.0904541015625 0.09131645086100494 
379.0805358886719 0.7698434194950056 
380.0907287597656 0.10663524981302451 
391.09246826171875 0.1834424597257081 
397.1044006347656 0.22208252630848432 
403.0927429199219 0.20531785762217644 
409.1005554199219 0.18407050883143758 
415.10150146484375 0.13993262429855513 
421.1028747558594 0.1356605694350128 
427.1167297363281 0.09601268666004414 
433.1082763671875 0.22029613247500493 
439.1107482910156 0.08619394606617327 
445.1053466796875 0.31609995933569784 
446.1215515136719 0.09483338963628105 
457.1082763671875 0.4751199281463502 
458.12432861328125 0.12368419043339314 
469.1290588378906 0.2814520489589021 
481.1318359375 0.12287810058134466 
499.1412048339844 0.25765504412277523 
500.16021728515625 0.0883745172906448 
511.1316833496094 0.10084951254456441 
529.1336059570312 0.35174255711355723 
530.1541137695312 0.11957153612125647 
547.1426391601562 1.0 
548.1653442382812 0.2291997470382164 
565.1573486328125 0.5082590043612321 
566.1677856445312 0.10031866130134943 
END IONS

BEGIN IONS
CHARGE=1+
PRECURSOR_MZ=519.331629812
COMPOUND_NAME=challenge_180
FORMULA=C30H46O7
SMILES=CC1(C)[C@@H](O)CC[C@]2(C)C3=C([C@@]4([C@@H](O)C[C@@H]([C@]4(CC3=O)C)[C@H](C)CC(C[C@@H](C)C(O)=O)=O)C)[C@@H](O)C[C@@]12[H]
INCHIKEY=RERVSJVGWKIGTJ-RQLZKMEDSA-N
ADDUCT=[M+H]+
IONMODE=positive
PARENT_MASS=518.3243538119999
55.055747985839844 0.0450232244067579 
55.700843811035156 0.04788803665794166 
69.03560638427734 0.09423235991790598 
69.29588317871094 0.03708640089339534 
70.81803894042969 0.029917209963408593 
83.08712768554688 0.04301311021355025 
87.04638671875 0.062498758329128205 
89.0624008178711 0.4048909717536335 
91.05579376220703 0.032497307083690447 
93.07206726074219 0.045565294085704464 
95.08799743652344 0.11211749427974403 
96.76472473144531 0.03006365652146577 
105.07278442382812 0.05198023813124307 
107.088623046875 0.10253006167958667 
109.10321044921875 0.04203726890216506 
119.08829498291016 0.09829726897851565 
121.06710052490234 0.07380690329271249 
121.10446166992188 0.2158275036155508 
123.08357238769531 0.04249479783728397 
131.0892333984375 0.05028113571028287 
133.08859252929688 0.11272245580567124 
133.1070098876953 0.05884429209646008 
139.07940673828125 0.1288391879040105 
145.1044921875 0.04413920830831488 
147.1194610595703 0.06062942039699656 
157.10406494140625 0.040680801906302716 
159.08570861816406 0.05265447515322121 
159.12001037597656 0.05299148410501571 
163.1146240234375 0.043387242689762566 
171.12216186523438 0.03537390790420993 
173.10110473632812 0.051264276098675184 
173.13427734375 0.05129605800369552 
175.0801239013672 0.04157656518505239 
175.8839111328125 0.03693653852311635 
189.1324005126953 0.041221486270100166 
199.1156768798828 0.0502816469865242 
201.12945556640625 0.040250872149620344 
215.1490478515625 0.07687320220665657 
217.12371826171875 0.0582859979181221 
233.16195678710938 0.054596068591496086 
235.13894653320312 0.04012535383237478 
277.20062255859375 0.037275619361012605 
317.2377624511719 0.049226937662941304 
335.24114990234375 0.05309093950719748 
442.623779296875 0.03665935132620577 
447.30078125 0.09197299612240308 
448.2941589355469 0.04188148546608176 
465.3006591796875 0.21189042335386774 
466.317138671875 0.09639456175036677 
483.3091125488281 0.4834549060587851 
484.31884765625 0.15618839608221774 
489.9651184082031 0.049452386138878444 
501.32073974609375 1.0 
502.32171630859375 0.3174471137803691 
503.3055725097656 0.3688752320025504 
504.3155212402344 0.04577828202924586 
519.3562622070312 0.03829269144928759 
520.33154296875 0.17077935327470387 
END IONS

BEGIN IONS
CHARGE=1+
PRECURSOR_MZ=595.1657462599999
COMPOUND_NAME=challenge_181
FORMULA=C27H30O15
SMILES=O=C1C=C(C2=CC=CC=C2)OC3=CC(O[C@H]4[C@@H]([C@H]([C@@H]([C@@H](CO[C@H]5[C@@H]([C@H]([C@@H]([C@@H](CO)O5)O)O)O)O4)O)O)O)=C(O)C(O)=C13
INCHIKEY=HAYLVXFWJCKKDW-IJTBWITGSA-N
ADDUCT=[M+H]+
IONMODE=positive
PARENT_MASS=594.1584702599998
51.60096740722656 0.00464209164775632 
67.76175689697266 0.006468879454245684 
67.76936340332031 0.00511390638299791 
73.40450286865234 0.006244518003345572 
85.03071594238281 0.014435789456437009 
123.01069641113281 0.009720654402612805 
224.0718231201172 0.00563660879649685 
270.967529296875 0.028385730420910076 
270.9972839355469 0.04559012526270264 
271.05926513671875 1.0 
272.06292724609375 0.1477117920525503 
273.0745849609375 0.014374166723247414 
433.1128845214844 0.09195938510165262 
434.1297302246094 0.018235300852212147 
595.1656494140625 0.03913205177350585 
596.1813354492188 0.011406976174849127 
END IONS

BEGIN IONS
CHARGE=1+
PRECURSOR_MZ=607.280262936
COMPOUND_NAME=challenge_182
FORMULA=C37H38N2O6
SMILES=[H][C@]12N(C)CCC(C1=C3)=CC(OC)=C3OC4=C5C(OCO5)=CC6=C4[C@](N(C)CC6)([H])CC(C=C7)=CC=C7OC8=C(OC)C=CC(C2)=C8
INCHIKEY=YVPXVXANRNDGTA-WDYNHAJCSA-N
ADDUCT=[M+H]+
IONMODE=positive
PARENT_MASS=606.2729869359999
58.06675720214844 0.02346438661359291 
67.47296905517578 0.03798793112042355 
67.48013305664062 0.012235837491588545 
67.58528137207031 0.014825087085257435 
69.2623062133789 0.008855248463908184 
89.06182098388672 0.016304530925669445 
121.06685638427734 0.020433676126066787 
133.08958435058594 0.009628596731282066 
146.0989227294922 0.01903656523817323 
162.09591674804688 0.015082045338630027 
170.923583984375 0.011649864526626481 
174.09112548828125 0.1016366732296781 
175.1013641357422 0.015897201233145936 
176.1103515625 0.0279528822805812 
188.0753936767578 0.012354104099983266 
190.0900421142578 0.024892125320881413 
203.096923828125 0.014804695427462109 
213.09432983398438 0.022531983554493765 
227.1133575439453 0.03128756226256556 
241.12896728515625 0.011184996757807077 
319.12628173828125 0.02323320651990088 
322.1079406738281 0.012943833569358451 
334.1134948730469 0.01358857684420028 
349.15264892578125 0.013232916124446803 
363.15057373046875 0.024505871551303644 
365.1506042480469 0.08678092633702073 
366.1563415527344 0.018570120321629097 
379.17510986328125 0.020074051675259108 
400.2019958496094 0.022555878594227873 
533.2135620117188 0.018184179478187186 
534.22509765625 0.015693227633096805 
546.22119140625 0.01108554744104861 
564.2368774414062 0.07257148734988446 
565.2556762695312 0.03453219183812979 
576.2479248046875 0.0622641955534114 
577.2623291015625 0.02281919411589827 
606.271484375 0.02434809002125561 
607.0565795898438 0.022925926962316684 
607.278564453125 1.0 
608.2813720703125 0.3912507521353523 
609.2845458984375 0.06749305498687991 
END IONS

BEGIN IONS
CHARGE=1+
PRECURSOR_MZ=793.4368827280001
COMPOUND_NAME=challenge_184
FORMULA=C42H64O14
SMILES=C[C@@]([C@@H]([C@@H](OC(/C(C)=C/C)=O)[C@]1([H])[C@]23C)OC(C)=O)([C@@H]4C(C)=O)[C@]5(CC4)[C@@]1(CC[C@@]2([H])C[C@@H](O[C@@](O[C@H](C)[C@H]6O[C@@](O[C@H](C)[C@@H](O)[C@H]7OC)([H])[C@@H]7O)([H])C[C@H]6OC)CC3)O5
INCHIKEY=OHDJGUWKOIBIKY-SGFNNURDSA-N
ADDUCT=[M+H]+
IONMODE=positive
PARENT_MASS=792.4296067280001
57.03477096557617 0.09967167792631848 
59.05124282836914 0.20071490724117902 
67.05647277832031 0.19553383750146727 
69.02668762207031 0.07910538075015239 
69.03565216064453 0.7606486667973493 
71.05059051513672 0.10976810222209389 
73.7181396484375 0.059306892630643614 
79.05612182617188 0.11688487275053022 
81.07154846191406 0.06377882630227193 
83.051513671875 0.16138445327947 
85.03099822998047 0.6633240535094754 
85.06746673583984 0.41141430667643836 
87.0457763671875 0.12757108300579237 
95.05184173583984 0.993655336982098 
97.06749725341797 1.0 
99.04579162597656 0.13383874566110077 
103.12620544433594 0.06232456141623645 
111.0472412109375 0.20453349406044358 
113.05987548828125 0.9012712976600595 
115.07837677001953 0.07191836586785312 
119.08870697021484 0.09468404767953861 
127.07740783691406 0.07858626536252906 
129.0574493408203 0.14510584570864854 
137.06570434570312 0.06490391486493133 
144.09739685058594 0.06450000529598537 
145.0902099609375 0.7012003604752342 
161.08251953125 0.0717914934649717 
175.11459350585938 0.06712714957154027 
187.09861755371094 0.0974384316309328 
195.11932373046875 0.06386296808349026 
203.10787963867188 0.09316604959973233 
205.3031463623047 0.0638117312387542 
211.1042022705078 0.08366562316408864 
227.13351440429688 0.06871980834917171 
251.1827850341797 0.08036966122960011 
269.197021484375 0.058163644460624206 
273.1407470703125 0.08171456945887944 
293.1972351074219 0.11861480999818196 
311.20001220703125 0.4868024407382865 
312.2138977050781 0.09253764103462951 
329.20989990234375 0.33431161548882743 
347.2206115722656 0.7355743525150054 
348.2340087890625 0.16438500986576782 
371.2237548828125 0.06906636892588566 
455.30999755859375 0.07004860644488048 
471.4300842285156 0.06498286948239941 
473.29779052734375 0.10670763026709323 
491.3106384277344 0.14360042559408986 
633.385009765625 0.1825074727804489 
651.37158203125 0.3415958806229762 
732.1019897460938 0.06200959084813102 
END IONS

BEGIN IONS
CHARGE=1+
PRECURSOR_MZ=629.3108943679999
COMPOUND_NAME=challenge_185
FORMULA=C38H44O8
SMILES=O=C(O)/C(C)=C\C[C@@]1(C2=O)OC(C)(C)[C@@](C[C@@]2([H])C=C34)([H])[C@]31OC5=C(C(O)=C(C=C[C@](CC/C=C(C)/C)(C)O6)C6=C5C/C=C(C)\C)C4=O
INCHIKEY=GEZHEQNLKAOMCA-RRZNCOCZSA-N
ADDUCT=[M+H]+
IONMODE=positive
PARENT_MASS=628.3036183679999
59.717350006103516 0.05096620094169705 
63.69263458251953 0.044045114069365815 
63.81336975097656 0.044668798252333664 
69.07183074951172 0.11372576452327773 
79.35498809814453 0.041497560536024866 
81.07186126708984 0.11706917907893616 
93.07209014892578 0.0674377852394776 
107.08818054199219 0.08562727507707112 
109.03166198730469 0.04859780062874412 
109.10462188720703 0.051776449029514136 
110.6733627319336 0.0574614257816801 
123.12130737304688 0.05144612763323671 
136.04185485839844 0.05320395544472622 
185.06405639648438 0.07514282343322165 
213.09706115722656 0.1406028581716232 
219.5831298828125 0.10959667672488926 
227.1126708984375 0.08670466564704457 
229.12603759765625 0.06253720940452132 
237.09506225585938 0.06576325193092525 
255.10897827148438 0.12803980587835923 
285.0472717285156 0.04906922170184108 
299.1397705078125 0.13412831167982103 
337.0830383300781 0.06658336360000004 
379.1294860839844 0.09134349720788165 
391.12786865234375 0.09736767716716918 
447.1983947753906 0.15029801533856924 
487.19317626953125 0.21458763293721925 
488.1934509277344 0.05451926477005995 
527.2638549804688 0.1058374197003556 
545.2742919921875 0.1840465843393758 
573.2461547851562 1.0 
574.2495727539062 0.38252055711023947 
575.2821044921875 0.07065737438403541 
601.3313598632812 0.08149470061740086 
629.305419921875 0.3175357971231937 
630.3323974609375 0.1113576119467843 
END IONS

BEGIN IONS
CHARGE=1+
PRECURSOR_MZ=587.248688036
COMPOUND_NAME=challenge_188
FORMULA=C31H38O11
SMILES=O=C1[C@H](OC(C)=O)C(C2(C)C)=C(C)[C@@H](O)C[C@@]2(O)[C@@H](OC(C3=CC=CC=C3)=O)[C@@]4([H])[C@@]1(C)[C@@H](O)C[C@@]5([H])OC[C@]54OC(C)=O
INCHIKEY=OVMSOCFBDVBLFW-VHLOTGQHSA-N
ADDUCT=[M+H]+
IONMODE=positive
PARENT_MASS=586.2414120359999
53.03460693359375 0.0196733853373176 
53.04039764404297 0.0563135964709476 
55.05601501464844 0.05265832269060878 
57.03476333618164 0.02612238975576315 
57.071205139160156 0.02536117477959836 
63.90140914916992 0.01933045661506366 
67.0550765991211 0.10583081234126362 
69.03498840332031 0.03601023593492561 
69.0716781616211 0.053295964021884606 
70.06755828857422 0.01975395583912309 
71.05107879638672 0.06296756569833699 
77.04006958007812 0.043293873715716524 
79.05654907226562 0.075514737011458 
81.07203674316406 0.13002161465526996 
81.78675079345703 0.020354991663130467 
83.0404052734375 0.023215694517813808 
83.05086517333984 0.048507638053568454 
83.08747863769531 0.04153517686665718 
85.03077697753906 0.09623696179469551 
91.05663299560547 0.122637286911076 
93.0723876953125 0.20431731525339686 
95.04939270019531 0.19254744786747474 
95.0879898071289 0.20458915741742073 
97.06611633300781 0.018162938818693932 
105.0192642211914 0.05734113620176615 
105.03343963623047 1.0 
105.07257080078125 0.2978766061419139 
106.03971099853516 0.07184814603397055 
106.07610321044922 0.030369751494293593 
107.05096435546875 0.02538737861346413 
107.08565521240234 0.14595737540282164 
108.20745086669922 0.017996986351733794 
109.06488037109375 0.15383718018615655 
109.10411834716797 0.12988024014024607 
111.04618835449219 0.04289842481558396 
111.0832290649414 0.05816753426256067 
113.09864807128906 0.02452431768728695 
117.07283782958984 0.05450746004927927 
119.05194854736328 0.058866231100324885 
119.08859252929688 0.1320310635309768 
121.06493377685547 0.1578681672631793 
121.10092163085938 0.13262181680997254 
123.02884674072266 0.023128841096421708 
123.04784393310547 0.05684354573672491 
123.08370208740234 0.1784193148525607 
123.11918640136719 0.03397350003942708 
124.08507537841797 0.022819085218909272 
125.06151580810547 0.04099462517407747 
128.06300354003906 0.025666273619453728 
129.0729217529297 0.029276607317314053 
131.0889129638672 0.08271386864137653 
133.06463623046875 0.5226911523573409 
133.1045684814453 0.21185690700057724 
134.07069396972656 0.036573814704276744 
135.04644775390625 0.02126077997222667 
135.08299255371094 0.07124941997710052 
135.12057495117188 0.055902709413769014 
137.06224060058594 0.05716240831790782 
137.0950164794922 0.08979178051516976 
139.0776824951172 0.0436889961158144 
141.09384155273438 0.028485371986607638 
142.08065795898438 0.02122088740379809 
143.08900451660156 0.0805763788061168 
145.06997680664062 0.03685675566339901 
145.10040283203125 0.10143662486077862 
147.04823303222656 0.026727791414693943 
147.0841522216797 0.06450845172695222 
147.12110900878906 0.05806669428562816 
149.06341552734375 0.07738270548023778 
149.09959411621094 0.07099080547664452 
151.07955932617188 0.08469946536589994 
151.1138153076172 0.05090147453769184 
155.08790588378906 0.034971840077953384 
156.09490966796875 0.025981703538109684 
157.07708740234375 0.019707034695623255 
157.10464477539062 0.06278488892892387 
159.08428955078125 0.12071030135494337 
159.12074279785156 0.08194390214063306 
161.06639099121094 0.04746740011869777 
161.10043334960938 0.11076423668986429 
161.13351440429688 0.04008199139465919 
163.04327392578125 0.026640454861493745 
163.08103942871094 0.02391080206127767 
163.1151123046875 0.03629055827552635 
163.14768981933594 0.020376785540446505 
165.0953826904297 0.0640718638224478 
167.11102294921875 0.037403720434362936 
169.1055145263672 0.06983714848918021 
170.11209106445312 0.021367715351833967 
171.08580017089844 0.03449196003371316 
171.1215362548828 0.06209919914659597 
173.06500244140625 0.025322369809258328 
173.10072326660156 0.046594211073201025 
173.13540649414062 0.041469320927226216 
175.07937622070312 0.04827223594071437 
175.11447143554688 0.025234141999206657 
175.15243530273438 0.025444946305392672 
177.06166076660156 0.02193267071592598 
177.0955810546875 0.07128215822382288 
179.10874938964844 0.09227839595509872 
181.06956481933594 0.023816372956648065 
181.10336303710938 0.0520205181093156 
183.12020874023438 0.0576245867656723 
185.10108947753906 0.048534269867209434 
185.13636779785156 0.03960982381069803 
187.08001708984375 0.03950868821886924 
187.1155242919922 0.04313562709079151 
187.1495819091797 0.0397713177873195 
189.09498596191406 0.0443659321674823 
189.13131713867188 0.03680528778630788 
189.16781616210938 0.03019067725566873 
193.10398864746094 0.044000834534088686 
194.11158752441406 0.02260973251422887 
195.0718536376953 0.03909745701300543 
195.1197509765625 0.06538285852933513 
196.0900115966797 0.024638286054128128 
196.13253784179688 0.02520369587097114 
197.09938049316406 0.042979621844483056 
197.1355743408203 0.047958372339792436 
199.11529541015625 0.03489820549580389 
201.09381103515625 0.026255356894893604 
201.13095092773438 0.03411773363583591 
201.1679229736328 0.025583545570121654 
206.11265563964844 0.029885684307716504 
207.11053466796875 0.11039432979920283 
209.09815979003906 0.04073698576156292 
209.138427734375 0.028313546931185582 
211.1153564453125 0.07854950188801733 
211.14999389648438 0.03602959429846932 
213.09075927734375 0.02568522827011669 
215.1095428466797 0.025212517990151912 
215.18560791015625 0.029802631964431052 
217.12525939941406 0.024866445602023356 
220.13107299804688 0.03925865096256799 
221.1383056640625 0.059046031139702554 
222.1053009033203 0.021671739830088677 
223.11175537109375 0.03914079327436754 
224.12490844726562 0.028659237667246554 
225.13035583496094 0.04238538736917143 
225.17242431640625 0.03788014134310043 
235.15261840820312 0.05187730813463718 
237.1300811767578 0.03268217916571158 
238.14247131347656 0.02324475302090186 
239.14990234375 0.05569109326965888 
245.12962341308594 0.026915378921115403 
247.14239501953125 0.024055465843543018 
248.12503051757812 0.02700384940011178 
249.1317901611328 0.03161857000538425 
253.16641235351562 0.08665083253273172 
263.1494140625 0.08469145287856196 
264.1535339355469 0.021991074512673108 
267.1438293457031 0.04433750460365049 
271.1750793457031 0.034457997411860695 
281.15240478515625 0.12847527519364277 
282.1617431640625 0.027603910136177693 
285.1560363769531 0.07038595533804261 
291.14630126953125 0.050208681173527954 
299.1621398925781 0.1302637894377627 
303.1662902832031 0.027105834333247043 
309.14776611328125 0.21740603099568956 
310.1607971191406 0.04385255057238456 
317.1800842285156 0.04700258760984256 
327.1582946777344 0.45956807116274745 
328.1668701171875 0.09236069161249295 
345.16827392578125 0.3703137273533399 
346.18438720703125 0.0756074453726615 
347.1908264160156 0.020589968002290654 
369.1785583496094 0.05293783760544804 
387.17877197265625 0.11998583307525124 
388.1905822753906 0.03896325226225697 
405.19024658203125 0.4825727694453008 
406.19439697265625 0.10026303372254726 
423.3705139160156 0.026106861149383192 
434.3479919433594 0.021975607676569982 
441.3846740722656 0.03391253277619132 
449.2007141113281 0.0368353081408495 
509.22509765625 0.03247519358628274 
533.4066772460938 0.032418766438394316 
551.4271850585938 0.05183868406296502 
567.4100952148438 0.027477572271400384 
569.4328002929688 0.05844874786001288 
585.4175415039062 0.05906356507399832 
586.4439086914062 0.049402433459469416 
587.2491455078125 0.034522284827476324 
587.4351196289062 0.21058518054110623 
588.4445190429688 0.059389773905961916 
END IONS

BEGIN IONS
CHARGE=1+
PRECURSOR_MZ=473.3625360159999
COMPOUND_NAME=challenge_190
FORMULA=C30H48O4
SMILES=O[C@H]1[C@H](O)C(C)(C)[C@@](CC[C@]2(C)[C@]3([H])CC=C4[C@@]2(C)CC[C@]5(C(O)=O)[C@@]4([H])[C@@H](C)[C@H](C)CC5)([H])[C@]3(C)C1
INCHIKEY=HFGSQOYIOKBQOW-ZSDYHTTISA-N
ADDUCT=[M+H]+
IONMODE=positive
PARENT_MASS=472.35526001599993
55.05601501464844 0.057234830124461684 
67.05659484863281 0.041052081019283114 
69.07170867919922 0.07627874148210122 
76.07393646240234 0.04450134260571032 
79.05587005615234 0.060429775961277514 
81.07217407226562 0.07458284656745917 
89.5013427734375 0.044965168103755594 
91.05655670166016 0.04617390726901966 
93.0710220336914 0.07324422558935256 
95.08597564697266 0.26898285512040226 
105.07156372070312 0.11436590600500568 
107.08857727050781 0.29385075057412163 
109.10457611083984 0.14774483368795077 
119.0894775390625 0.16621977776294572 
121.10448455810547 0.18706049648909515 
133.10519409179688 0.29669093961551035 
135.1178741455078 0.09080157833819874 
145.10232543945312 0.09945758188517966 
147.1203155517578 0.17629821508189836 
149.13690185546875 0.05685273610925908 
159.12115478515625 0.08440908057854327 
161.13612365722656 0.10464047326664505 
163.11605834960938 0.15535643714277053 
163.1505889892578 0.05765587756540262 
173.1371612548828 0.059719599730802875 
175.12078857421875 0.04853459871825396 
175.1521453857422 0.17415202763810264 
177.1642303466797 0.24270930980026387 
179.1453399658203 0.05637626709147707 
187.15371704101562 0.18774473193496746 
189.1632843017578 0.46460319680834333 
190.17071533203125 0.08597207400046195 
201.16845703125 0.06077061732467641 
203.17941284179688 0.36438348152030625 
205.1577911376953 1.0 
206.16871643066406 0.17225830144243037 
207.1731414794922 0.22072958027534784 
248.18226623535156 0.061150745657246715 
249.19232177734375 0.1567239118514617 
409.3435974121094 0.475786881436143 
410.3612976074219 0.17363840632912095 
427.3680725097656 0.06412378727165528 
432.1766662597656 0.6095583621669031 
433.19390869140625 0.2199110557960705 
434.1926574707031 0.2065687136473236 
437.337646484375 0.299093146104049 
438.3574523925781 0.11049420498971015 
450.20550537109375 0.06316748267104 
453.2770690917969 0.05242560967470212 
455.3633117675781 0.1633725620732334 
473.16815185546875 0.135200238486223 
473.38177490234375 0.14877839139491386 
474.3651123046875 0.05945004771716826 
475.1933288574219 0.14192364690946305 
489.25616455078125 0.05164394396840335 
END IONS

BEGIN IONS
CHARGE=1+
PRECURSOR_MZ=579.17083164
COMPOUND_NAME=challenge_192
FORMULA=C27H30O14
SMILES=O=C(C=C(C1=CC=C(O)C=C1)OC2=CC(O[C@H](O[C@H](CO)[C@@H](O)[C@@H]3O)[C@@H]3O[C@@](O[C@@H](C)[C@H](O)[C@H]4O)([H])[C@@H]4O)=C5)C2=C5O
INCHIKEY=RPMNUQRUHXIGHK-PYXJVEIZSA-N
ADDUCT=[M+H]+
IONMODE=positive
PARENT_MASS=578.1635556399999
55.39117431640625 0.005063449506311157 
67.76034545898438 0.0054275830902897094 
67.76815795898438 0.005028463129356958 
71.05075073242188 0.0075483590607014015 
74.30292510986328 0.004540126262040111 
85.03038787841797 0.009280409058691326 
119.05036163330078 0.004861893845652064 
153.02236938476562 0.01788166393790973 
192.2017364501953 0.005414433474046579 
210.0799102783203 0.004919324941348876 
270.883544921875 0.006288245271297944 
270.9661865234375 0.025325404862659214 
270.9963073730469 0.035255721057069866 
271.059326171875 1.0 
272.0628356933594 0.155611878874779 
273.072265625 0.01145554081433892 
433.1247863769531 0.007615696582010592 
579.1712036132812 0.06365840757051774 
580.1741943359375 0.021734012064758883 
592.50439453125 0.005094503598752605 
END IONS

BEGIN IONS
CHARGE=1+
PRECURSOR_MZ=287.09139954799997
COMPOUND_NAME=challenge_193
FORMULA=C16H14O5
SMILES=O=C1C=CC2=C(OC[C@H](O)C(C)=C)C3=C(OC=C3)C=C2O1
INCHIKEY=BVMOMQJYQYBMKL-LBPRGKRZSA-N
ADDUCT=[M+H]+
IONMODE=positive
PARENT_MASS=286.084123548
50.75665283203125 0.011676168462518554 
51.43564224243164 0.007603621445436475 
57.07174301147461 0.016392458294111185 
98.68379211425781 0.008844748293983917 
119.05154418945312 0.010309777969259892 
131.0488739013672 0.06819182681951087 
147.01939392089844 0.010843990680016574 
147.04354858398438 0.18618290773866902 
148.05015563964844 0.017701308896266397 
151.13755798339844 0.010140398984097295 
159.0435333251953 0.08010742468758587 
160.0507049560547 0.011738260783949567 
164.09263610839844 0.007619181904185932 
175.04364013671875 0.02693784018387311 
202.0287322998047 0.016050480258199176 
202.97348022460938 0.029939895840747636 
202.99337768554688 0.03938122536193184 
203.0332794189453 1.0 
204.0366973876953 0.1213026105098227 
287.0903015136719 0.6044711597609763 
288.09442138671875 0.1048816194296106 
302.474853515625 0.011538351570354986 
END IONS

BEGIN IONS
CHARGE=1+
PRECURSOR_MZ=371.14891442399994
COMPOUND_NAME=challenge_194
FORMULA=C21H22O6
SMILES=O=C1C2=C(O)C=CC(O)=C2C(C=C1[C@@H](C/C=C(C)/C)OC(/C=C(C)/C)=O)=O
INCHIKEY=BATBOVZTQBLKIL-QGZVFWFLSA-N
ADDUCT=[M+H]+
IONMODE=positive
PARENT_MASS=370.14163842399995
52.41364288330078 0.03230445433880973 
71.31866455078125 0.037262126693187105 
119.99586486816406 0.031790858399939205 
129.07249450683594 0.04368275217271687 
133.38731384277344 0.03262857188720159 
136.0550537109375 0.08844466856365392 
137.0591583251953 0.9245794158189555 
138.06704711914062 0.10344330820272243 
143.0888214111328 0.04485996219537668 
145.0680694580078 0.058914333937215735 
146.07411193847656 0.03374349129775385 
149.0595245361328 0.2170194766298323 
151.07492065429688 0.8659255087079355 
152.08082580566406 0.07748408611379323 
157.0675506591797 0.06302509525574379 
158.07460021972656 0.08708676496823725 
159.08277893066406 0.05918446311359491 
160.05506896972656 0.04277026772695575 
172.08811950683594 0.38175679794403644 
173.0610809326172 0.19534904890553426 
173.0958251953125 0.049574691637976155 
174.0672149658203 0.24236003420103838 
175.0790252685547 0.07241126819774832 
187.07907104492188 0.050688953853997 
188.0828399658203 0.6295401919094388 
189.0902862548828 0.6225388541026616 
190.0967254638672 0.08193187710708631 
201.09481811523438 0.1306674170494777 
203.1061248779297 0.616349465852604 
204.11395263671875 0.0834162477892865 
247.09600830078125 1.0 
248.10008239746094 0.16045257806175695 
265.12994384765625 0.04137503103736106 
279.1115417480469 0.04395128757298605 
280.8203125 0.04565374524432448 
293.1231689453125 0.08330315318253341 
294.1324157714844 0.1108909287191191 
310.1221008300781 0.04078171136961017 
325.1411437988281 0.2962085856960334 
326.1557922363281 0.09642732797479137 
343.1525573730469 0.3520725591528416 
344.1656188964844 0.06852262593142562 
347.8265075683594 0.04689948446486104 
353.14697265625 0.05758668033936078 
371.1479187011719 0.8034840275949062 
372.1490783691406 0.19637331991869125 
END IONS

BEGIN IONS
CHARGE=1+
PRECURSOR_MZ=683.400103296
COMPOUND_NAME=challenge_195
FORMULA=C36H58O12
SMILES=OCC1([C@@]2([H])[C@@]([C@]3([H])[C@](C)([C@]4(C([C@@]5([H])[C@](C(O)=O)(CCC(C)(C)C5)[C@H](O)C4)=CC3)C)CC2)(C[C@H](O)[C@@H]1O[C@]6([H])O[C@@H]([C@@H](O)[C@H](O)[C@H]6O)CO)C)CO
INCHIKEY=HPVWWHYNAAZHQR-KNSUCORESA-N
ADDUCT=[M+H]+
IONMODE=positive
PARENT_MASS=682.392827296
50.58940124511719 0.03320719833851697 
53.92382049560547 0.04264102270176537 
55.92477798461914 0.03832759462946912 
67.05633544921875 0.06034115705679018 
69.03507232666016 0.04993010813108766 
69.07176208496094 0.049684845294122905 
79.05659484863281 0.0518458433809251 
81.07225036621094 0.0948116405999488 
84.0811767578125 0.02052217869889956 
85.02897644042969 0.0948437541135132 
91.05654907226562 0.04698388066534403 
93.07037353515625 0.12324026341356874 
95.05167388916016 0.08643889649931519 
95.0857162475586 0.3237100937120901 
96.71553802490234 0.022201303544786177 
97.06654357910156 0.03166310354590161 
99.04531860351562 0.024810980039067544 
105.07022857666016 0.129965458333001 
107.08549499511719 0.1424970598594094 
109.06678771972656 0.03159089311729144 
109.10421752929688 0.09397648685118035 
117.07205963134766 0.021841403935047826 
119.08883666992188 0.2636747346647178 
120.09046936035156 0.027758721727439567 
121.0683364868164 0.034901062492537584 
121.10112762451172 0.10747982200897703 
123.08323669433594 0.047918946871055336 
129.07211303710938 0.03243827308936138 
131.08892822265625 0.11887815533261534 
133.10069274902344 0.13088970384384066 
135.08335876464844 0.031187178501301004 
135.11972045898438 0.05655147010627684 
137.09947204589844 0.0315160590356123 
143.08914184570312 0.06765431262898253 
144.0920867919922 0.022962848832666284 
145.10130310058594 0.20825956870261944 
147.08401489257812 0.03104992396503483 
147.11720275878906 0.09378427053119469 
149.0978546142578 0.02961760054123414 
149.13719177246094 0.03575717173317562 
157.1051483154297 0.09162827987367846 
159.08804321289062 0.0385193236995991 
159.1208038330078 0.12893445263070843 
161.10409545898438 0.036423527139637056 
161.1365203857422 0.08580051673072078 
163.1514434814453 0.04085979464862329 
169.10324096679688 0.03164107235627374 
171.12112426757812 0.06727011986586326 
173.1377716064453 0.1136634424619089 
175.11727905273438 0.0453797791789651 
175.153076171875 0.0955508511040602 
177.13409423828125 0.03048921369747199 
177.16615295410156 0.04261072325689438 
183.1190643310547 0.03817436579408863 
185.1370391845703 0.07431929096240572 
187.14744567871094 0.28663544709417077 
188.15408325195312 0.03510754024099108 
189.13174438476562 0.038050915421041144 
189.1682891845703 0.0728349704828535 
191.14752197265625 0.042202778937349146 
197.1373748779297 0.048832450396615386 
199.146728515625 0.09545550755153319 
201.1623077392578 0.11172662428562424 
203.1424560546875 0.30819818721464776 
204.15052795410156 0.026461053549328845 
205.16470336914062 0.07661309087140844 
213.1707305908203 0.07713370609796343 
215.1476593017578 0.04978831842308795 
217.16351318359375 0.08619918456262923 
225.1670379638672 0.02645899023359388 
227.18429565429688 0.04144628980374056 
229.15760803222656 0.03964601402931763 
371.2802429199219 0.02503765242000062 
371.9039306640625 0.024952677919209836 
403.3091735839844 0.029565749660439324 
421.3200378417969 0.05006342718775035 
423.3332824707031 0.03410192400425469 
449.3204650878906 0.05946761551554663 
450.3169250488281 0.028808355366521935 
455.3148498535156 0.7409596861163416 
456.31866455078125 0.23702197265967598 
467.33123779296875 0.0901591540934715 
485.32513427734375 1.0 
486.329345703125 0.3139941216978028 
487.34552001953125 0.031998751231092984 
503.3355407714844 0.896862668643172 
504.337890625 0.2548064574608687 
505.354736328125 0.024719905544891365 
521.3455200195312 0.5352700830447665 
522.3505249023438 0.15515777510141843 
683.4107666015625 0.06679828209793656 
END IONS

BEGIN IONS
CHARGE=1+
PRECURSOR_MZ=639.446659564
COMPOUND_NAME=challenge_196
FORMULA=C36H62O9
SMILES=C[C@]12[C@](CC=C3[C@@]2([H])CC[C@H](O[C@]4([H])O[C@@H]([C@@H](O)[C@H](O)[C@H]4O)CO)C3(C)C)([H])[C@]5([C@@](C)([C@]([C@H](C)CC[C@@H](O)C(C)(O)C)([H])CC5)C[C@H]1O)C
INCHIKEY=LLZGAVAIPZROOJ-FDWAMWGASA-N
ADDUCT=[M+H]+
IONMODE=positive
PARENT_MASS=638.439383564
67.0556640625 0.2221805141518255 
81.07135772705078 0.2831090235075407 
85.02935028076172 0.14963003949090828 
93.0716781616211 0.268156863607863 
95.05036926269531 0.19872071457643525 
95.08587646484375 0.9004883672324463 
105.07160949707031 0.20470304817010793 
107.08818817138672 0.3812923097231236 
109.08916473388672 0.15052637310658146 
109.10413360595703 0.5304430681905684 
119.08767700195312 0.2959860296786826 
121.10435485839844 1.0 
123.1190185546875 0.26976430857909733 
133.1033935546875 0.3057622845325442 
135.11962890625 0.36661271409242413 
137.13548278808594 0.2112850935571518 
145.1032257080078 0.2084485683170713 
147.11962890625 0.325483934130485 
159.1204071044922 0.29685722771623746 
161.13540649414062 0.2857117493702355 
173.13558959960938 0.2191189457357519 
189.16725158691406 0.18533598072755672 
191.18014526367188 0.20280827659036157 
203.18272399902344 0.1957950872870076 
423.37799072265625 0.40951350281056464 
441.3753967285156 0.9585888875444135 
442.38494873046875 0.32310710946351767 
459.3988342285156 0.5576797386339886 
460.3897705078125 0.20947376989670763 
477.41290283203125 0.15575711441363152 
585.4221801757812 0.26730009790225173 
603.4393920898438 0.22104775209829827 
621.4505004882812 0.23001238628488455 
638.2551879882812 0.824145555347773 
639.2657470703125 0.18327775638839694 
639.4799194335938 0.3445833874179106 
640.2360229492188 0.15206210742847084 
640.4660034179688 0.2584283938530586 
END IONS

BEGIN IONS
CHARGE=1+
PRECURSOR_MZ=447.09218739599993
COMPOUND_NAME=challenge_197
FORMULA=C21H18O11
SMILES=O[C@H]([C@H]([C@@H]([C@@H](C(O)=O)O1)O)O)[C@@H]1OC2=CC(O)=C3C(C=C(C4=CC=C(O)C=C4)OC3=C2)=O
INCHIKEY=JBFOLLJCGUCDQP-ZFORQUDYSA-N
ADDUCT=[M+H]+
IONMODE=positive
PARENT_MASS=446.08491139599994
65.83645629882812 0.004521073865368012 
67.76690673828125 0.009285070254310235 
67.89126586914062 0.0049814057042540235 
75.88783264160156 0.004230407703219676 
80.07759094238281 0.0047468649465496155 
85.6824722290039 0.007001075845853893 
93.36021423339844 0.004252008371986043 
98.5067367553711 0.00484777852523239 
102.84825134277344 0.00407757711050033 
119.04876708984375 0.006667701092716359 
153.01702880859375 0.021066677662509616 
181.7021484375 0.006387297354203372 
219.3736114501953 0.008757244825534069 
271.0593566894531 1.0 
272.0626525878906 0.1514044756252788 
273.06378173828125 0.010614580607918877 
361.22296142578125 0.00450630517056212 
447.0917053222656 0.1974808466424496 
448.0970458984375 0.04669843942389361 
449.1026611328125 0.0059389446861790535 
END IONS

BEGIN IONS
CHARGE=1+
PRECURSOR_MZ=301.070664104
COMPOUND_NAME=challenge_198
FORMULA=C16H12O6
SMILES=O=C1C(C2=CC=C(O)C=C2)=COC3=CC(O)=C(OC)C(O)=C13
INCHIKEY=OBBCRPUNCUPUOS-UHFFFAOYSA-N
ADDUCT=[M+H]+
IONMODE=positive
PARENT_MASS=300.063388104
58.20458984375 0.007197837927274965 
73.35596466064453 0.014823779424322425 
75.26448059082031 0.008071952130489496 
146.28143310546875 0.008693003193041672 
168.00430297851562 0.049806952410561336 
169.01585388183594 0.00861213562907635 
186.0201873779297 0.011345739601509773 
192.3823699951172 0.009225366329518057 
239.9130859375 0.008119897634934033 
240.04754638671875 0.008905465558288311 
241.05111694335938 0.011845168253358747 
257.0554504394531 0.0123798792379832 
258.0579528808594 0.022868257656044548 
285.0386047363281 0.08007179254440801 
285.9804992675781 0.02236447425282526 
286.0463562011719 0.7000588007733991 
287.0505065917969 0.10314479011342893 
288.0602111816406 0.012090789749160596 
300.9581604003906 0.0300020918710714 
301.070068359375 1.0 
302.0731201171875 0.16244330731989154 
303.0838317871094 0.01657384376450656 
END IONS

BEGIN IONS
CHARGE=1+
PRECURSOR_MZ=175.107718308
COMPOUND_NAME=challenge_201
FORMULA=C7H14N2O3
SMILES=OC([C@@H](N)CCC(NCC)=O)=O
INCHIKEY=DATAGRPVKZEWHA-YFKPBYRVSA-N
ADDUCT=[M+H]+
IONMODE=positive
PARENT_MASS=174.100442308
61.01278305053711 0.025185216069504385 
67.98831176757812 0.010579253191446154 
67.99590301513672 0.026307034562654416 
74.2280502319336 0.007477645861788663 
77.0010757446289 0.02782775403097173 
84.03424835205078 0.026688964831739263 
84.0468978881836 0.3512974295482112 
85.02981567382812 0.013530732637775914 
85.04977416992188 0.01096342174054231 
86.00598907470703 0.013619998670945828 
90.4861831665039 0.05134569952773767 
97.9976577758789 0.16108593021683795 
98.49727630615234 0.01345287922568198 
99.47514343261719 0.012483969892918658 
99.4910888671875 0.215904087671049 
102.05708312988281 0.01189430191381894 
106.97698211669922 0.034772315334405855 
106.98521423339844 0.0645516379972965 
107.00303649902344 1.0 
107.50401306152344 0.048897907569144666 
107.99868774414062 0.0484230734101261 
108.4966812133789 0.1424340754807429 
111.09465789794922 0.011341315657087625 
115.98789978027344 0.03758852892771261 
116.00850677490234 0.6081089275257416 
116.5099105834961 0.026590280890927746 
117.00720977783203 0.03774949738584388 
125.0125732421875 0.015231660089246845 
129.10585021972656 0.18736803607552613 
129.49375915527344 0.04299200651141204 
130.0535888671875 0.12388915764470244 
130.08834838867188 0.01767924944811836 
130.10879516601562 0.014224186793320253 
137.0014190673828 0.265377581048946 
137.505126953125 0.016323793254087126 
138.00323486328125 0.025226168027914334 
138.4982147216797 0.014634139881235566 
146.00759887695312 0.05839323809843429 
158.0536346435547 0.03004317304723901 
158.0809326171875 0.5978807401744856 
159.08413696289062 0.040502630959983264 
175.1071014404297 0.13676202217213215 
176.11550903320312 0.011813758096599928 
176.9741668701172 0.03536059937864334 
END IONS

BEGIN IONS
CHARGE=1+
PRECURSOR_MZ=307.081228788
COMPOUND_NAME=challenge_204
FORMULA=C15H14O7
SMILES=O[C@@H]1[C@@H](C2=CC(O)=C(O)C(O)=C2)OC3=CC(O)=CC(O)=C3C1
INCHIKEY=XMOCLSLCDHWDHP-SWLSCSKDSA-N
ADDUCT=[M+H]+
IONMODE=positive
PARENT_MASS=306.073952788
57.07108688354492 0.0032981549190493173 
57.93616485595703 0.0035743334937241543 
76.51638793945312 0.0033572857525413094 
76.6434097290039 0.006135968355997868 
76.76793670654297 0.011849156501447997 
76.77699279785156 0.003657122959316949 
76.89584350585938 0.0054069040984821536 
77.02005004882812 0.007219972515927006 
89.06127166748047 0.003043171483353117 
107.0522232055664 0.008957037038275696 
195.4010009765625 0.003007481626745736 
222.0947723388672 0.0059674313667830116 
234.098876953125 0.003285677186414346 
244.95245361328125 0.002882738360054719 
248.07557678222656 0.006858682586734666 
249.0839080810547 0.008316233953850921 
250.08587646484375 0.07471193852363364 
251.0935821533203 0.048186190481707566 
252.1064453125 0.005894091590195859 
255.8799591064453 0.014321538727963233 
257.88128662109375 0.004001118280307415 
262.0944519042969 0.013859605773317067 
263.097900390625 0.005131827097152286 
264.0719909667969 0.007622572145411668 
265.0763244628906 0.003994973544622012 
266.08935546875 0.008904065404159786 
276.07177734375 0.008185704277746815 
277.0812683105469 0.010052815575559187 
278.080322265625 0.12299452997028998 
278.90325927734375 0.0041708954143553625 
279.0875549316406 0.14793004467850848 
280.0950622558594 0.07799552104103816 
282.09320068359375 0.0034962099680874623 
283.8858337402344 0.012634286689743675 
285.8790283203125 0.005292781846456476 
290.6473388671875 0.009350347712349523 
292.10302734375 0.013390806764734198 
294.0837097167969 0.005070120793578029 
305.076416015625 0.007507231210803585 
305.1635437011719 0.0037484823949226124 
306.0854797363281 0.14423141582593368 
306.1667175292969 0.04288052055371442 
306.65972900390625 0.018298382736174637 
306.92474365234375 0.011597796220266982 
306.9673156738281 0.02589727548709082 
307.0057678222656 0.03334265902340802 
307.0831298828125 1.0 
307.1797790527344 0.013747926485304204 
307.927490234375 0.004829540161089159 
307.973388671875 0.010393852605235052 
308.08929443359375 0.45628631487467297 
308.1889953613281 0.005172242381475822 
309.0967712402344 0.14163897003651824 
END IONS

BEGIN IONS
CHARGE=1+
PRECURSOR_MZ=198.002775892
COMPOUND_NAME=challenge_210
FORMULA=C5H11NO2Se
SMILES=O=C(O)[C@@H](N)CC[Se]C
INCHIKEY=RJFAYQIBOAGBLC-BYPYZUCNSA-N
ADDUCT=[M+H]+
IONMODE=positive
PARENT_MASS=196.995499892
56.0411262512207 0.01888381325647006 
56.04439926147461 0.057724078926805 
56.05131530761719 0.6614588656066115 
57.054561614990234 0.023926596088736724 
61.012516021728516 0.02802670861491081 
71.1750259399414 0.00915445142075104 
71.93095397949219 0.010698964350805576 
72.45044708251953 0.008100566912312914 
72.93894958496094 0.017677466232714253 
74.02562713623047 0.033886988274763226 
74.062255859375 0.051608642197268115 
74.09844970703125 0.02473123606000851 
77.2256088256836 0.010769369365633497 
79.02244567871094 0.019168155279438166 
84.04650115966797 0.029442586652386412 
85.02991485595703 0.017205413124903896 
88.04097747802734 0.012325677880973501 
90.94952392578125 0.013901325112832763 
99.49272155761719 0.009803593076535094 
102.05778503417969 0.2563180215769764 
103.06088256835938 0.016570287862298277 
106.94198608398438 0.02039121363692393 
106.95899200439453 0.06249914017393525 
107.00225067138672 0.01747175776001376 
108.93975830078125 0.017590273728133494 
108.95514678955078 0.3802287644383958 
109.95974731445312 0.010855345830494106 
110.95829010009766 0.03237816303968776 
112.03932189941406 0.05629055725848066 
116.00694274902344 0.015771344852866957 
118.9278793334961 0.023960984218035067 
119.9275894165039 0.011387182644586779 
120.92337036132812 0.011327870614317129 
132.9754638671875 0.02502790798874518 
134.9578857421875 0.05456378576915736 
134.97579956054688 0.10811109007785484 
149.9977569580078 0.06111458437167567 
150.9510498046875 0.050449036546715266 
151.00439453125 0.013094708769934994 
151.97149658203125 0.021239718249050594 
151.99710083007812 0.5184896603901263 
153.0057830810547 0.020223204852194032 
153.99729919433594 0.04228990135367871 
161.5989532470703 0.009239248695579986 
162.9740447998047 0.010619754717074577 
178.9478302001953 0.023750420184714616 
178.98214721679688 0.11868926974805269 
179.98524475097656 0.02519351294546262 
180.9253387451172 0.03197344045436236 
180.9430694580078 0.049801071624316975 
180.9759063720703 1.0 
181.978515625 0.04546606444383581 
182.97625732421875 0.08838288709113944 
196.0063934326172 0.019741522920781386 
196.95999145507812 0.030283398277879434 
198.00254821777344 0.15957114941784173 
199.0109405517578 0.01155560046085891 
199.07131958007812 0.0537433446514613 
199.18310546875 0.023268229727600814 
200.007080078125 0.019151380072914823 
284.98046875 0.016209447114349046 
END IONS

BEGIN IONS
CHARGE=1+
PRECURSOR_MZ=199.0713328
COMPOUND_NAME=challenge_211
FORMULA=C8H10N2O4
SMILES=OC([C@@H](N)CN1C=CC(C(O)=C1)=O)=O
INCHIKEY=WZNJWVWKTVETCG-YFKPBYRVSA-N
ADDUCT=[M+H]+
IONMODE=positive
PARENT_MASS=198.0640568
55.93490219116211 0.013692601805747774 
61.01115417480469 0.03989688565252082 
62.018863677978516 0.006536301028684323 
63.00688171386719 0.01761785977277209 
64.0148696899414 0.005790209125901042 
67.24147033691406 0.0033757134446652038 
70.0289077758789 0.023084082509279732 
71.92959594726562 0.011366983592949777 
72.9373550415039 0.019156313147709783 
74.0967025756836 0.05427036423062668 
79.02133178710938 0.011037908888196345 
81.01722717285156 0.007876049782533381 
83.08550262451172 0.004216691173550618 
84.96064758300781 0.020641521748830105 
84.97000122070312 0.004375192977090291 
88.03961181640625 0.1562551493840595 
88.05191040039062 0.008611422122655418 
89.04225158691406 0.006536761495593383 
89.90283203125 0.004565737126054867 
90.94795227050781 0.015183049833827521 
100.0759506225586 0.013611345666426723 
101.95003509521484 0.03945520115747883 
102.94791412353516 0.006708220561584694 
105.91709899902344 0.00643201396604248 
107.00067138671875 0.006685371952848416 
107.91256713867188 0.013543010237489023 
112.02069854736328 0.008812437101914098 
112.03926849365234 1.0 
112.06746673583984 0.00846983367432431 
112.07597351074219 0.005087110033293834 
113.04288482666016 0.051064294952610834 
117.91699981689453 0.004725004294243964 
118.92477416992188 0.013831850921708366 
119.91262817382812 0.007907008492860586 
119.96096801757812 0.00758337380568524 
120.921142578125 0.04604752179687201 
123.95044708251953 0.008376246115281843 
132.0475311279297 0.0036448739604092533 
133.9484100341797 0.007101583668105108 
134.92013549804688 0.005833966409212679 
134.9560546875 0.0063557284622518485 
135.94412231445312 0.004801708363792201 
135.95999145507812 0.005394241907393477 
136.95269775390625 0.011544171081253116 
137.9234161376953 0.010627367646850733 
137.99989318847656 0.007399244544705441 
138.93177795410156 0.01059948822539844 
149.94383239746094 0.004623226843120035 
150.95054626464844 0.03100669516924442 
151.95394897460938 0.0069185581012848755 
152.031005859375 0.007499462738086979 
152.94955444335938 0.018119723236440087 
153.95773315429688 0.026702022275807515 
154.96810913085938 0.00457153330342031 
162.9730987548828 0.012676364264404353 
168.95986938476562 0.008255829338115004 
169.9559783935547 0.010757529562029052 
170.95889282226562 0.00518128153391507 
176.96827697753906 0.021232106888888786 
179.0807342529297 0.009337671601440755 
179.96392822265625 0.010152418986637733 
180.94349670410156 0.007730063496327363 
180.9827423095703 0.01166767517091961 
197.0891876220703 0.003976556566083743 
197.9783172607422 0.016782696720164726 
199.07093811035156 0.6368725682354724 
199.1797637939453 0.0286275656199847 
200.07406616210938 0.06977590850540169 
200.12278747558594 0.0072859763714307494 
201.07501220703125 0.0036744122662778736 
END IONS

BEGIN IONS
CHARGE=1+
PRECURSOR_MZ=243.101570308
COMPOUND_NAME=challenge_212
FORMULA=C15H14O3
SMILES=O=C(C1=C2OC(C)(C)CC1)C(C3=C2C=CC=C3)=O
INCHIKEY=QZPQTZZNNJUOLS-UHFFFAOYSA-N
ADDUCT=[M+H]+
IONMODE=positive
PARENT_MASS=242.094294308
53.078006744384766 0.009511044610533056 
60.773590087890625 0.00947922303896192 
101.40097045898438 0.010221748126989706 
103.0567398071289 0.01885421216327795 
105.0372085571289 0.02799016598903905 
131.05162048339844 0.014861749936703519 
133.03172302246094 0.013752023692895046 
138.11325073242188 0.008301254597151616 
155.05471801757812 0.03066086419924949 
159.0010986328125 0.012525812076446487 
159.01596069335938 0.028813583054988327 
159.04920959472656 0.4282561145270426 
160.05233764648438 0.03268601171702688 
173.06385803222656 0.02160599811372137 
179.09019470214844 0.024711568704305815 
181.072021484375 0.008277504822278273 
183.0497283935547 0.11330925964433904 
183.0853271484375 0.03653720288718958 
184.05369567871094 0.016070809240068106 
187.00338745117188 0.051178565244968256 
187.03863525390625 0.8457528713980822 
188.04840087890625 0.08843481941579306 
197.10130310058594 0.028207233765431508 
199.0807647705078 0.011390736652490576 
201.0610809326172 0.12105250736718833 
202.0627899169922 0.019225100175925065 
207.08529663085938 0.017521809009068582 
214.0689239501953 0.00982843105534157 
225.08987426757812 0.15731855226375185 
226.1024169921875 0.02604829086451247 
243.02281188964844 0.03257956052231125 
243.10107421875 1.0 
244.1045379638672 0.16613663295784672 
245.111572265625 0.012904791597968597 
END IONS

BEGIN IONS
CHARGE=1+
PRECURSOR_MZ=611.3115630640001
COMPOUND_NAME=challenge_215
FORMULA=C37H42N2O6
SMILES=OC1=CC=C(C[C@H]2N(C)CCC3=C2C=C(OC)C(OC)=C3)C=C1OC4=CC5=C(C=C4OC)CCN(C)[C@@H]5CC6=CC=C(O)C=C6
INCHIKEY=XCUCMLUTCAKSOZ-FIRIVFDPSA-N
ADDUCT=[M+H]+
IONMODE=positive
PARENT_MASS=610.304287064
52.900787353515625 0.010876165621663166 
58.06633377075195 0.019210154987522973 
67.92086791992188 0.0443148249950559 
68.03275299072266 0.016347001636516 
70.26299285888672 0.010989524024979998 
107.04927825927734 0.10114438328265275 
120.53929901123047 0.012415072123835755 
121.06710815429688 0.016307745496625448 
145.06797790527344 0.022046059136213846 
145.09170532226562 0.0207931715170462 
146.07528686523438 0.01321704229604182 
151.0779571533203 0.018203505536527144 
152.82040405273438 0.011456279151660774 
158.07554626464844 0.027212571741048488 
159.08370971679688 0.011752247024388542 
162.09413146972656 0.025690484815282473 
165.09548950195312 0.01379540544947891 
174.09359741210938 0.05730076826609764 
175.10263061523438 0.0377404751968198 
176.10577392578125 0.07053676071985125 
177.08102416992188 0.015139471367340222 
182.753173828125 0.012413421282007932 
189.09005737304688 0.054457758592885486 
190.09283447265625 0.04079601932232077 
191.09890747070312 0.0408601161033381 
192.10440063476562 0.021473693174598858 
195.08334350585938 0.01183608755085131 
206.07733154296875 0.03334499629321895 
206.1169891357422 0.7206847220591407 
207.08404541015625 0.02499236434093846 
207.12635803222656 0.08365406831702499 
237.0975799560547 0.02276461561558563 
239.1096649169922 0.020021868803021346 
240.11839294433594 0.019288053918140455 
251.1158447265625 0.012455258151274086 
252.12168884277344 0.0372543834307174 
267.1058654785156 0.024693492923485817 
282.12213134765625 0.012717999357468328 
283.12115478515625 0.016603917819074422 
297.13427734375 0.01698435929503326 
298.152099609375 0.02087791413306833 
446.20770263671875 0.04674083614742234 
458.20489501953125 0.015393666933871692 
460.21990966796875 0.015811359507718357 
461.237060546875 0.021462077202280747 
474.2452087402344 0.025627526855080643 
489.2359924316406 0.09751841367446967 
490.2541198730469 0.035426961606838794 
566.2702026367188 0.013210064104241638 
568.28271484375 0.013349752582838437 
569.269287109375 0.017857594542429186 
580.2874755859375 0.038968547282721165 
611.3106079101562 1.0 
612.3142700195312 0.37000501353758447 
613.3316040039062 0.05260209759961967 
END IONS

BEGIN IONS
CHARGE=1+
PRECURSOR_MZ=209.096091004
COMPOUND_NAME=challenge_222
FORMULA=C15H12O
SMILES=O=C(C1=CC=CC=C1)/C=C/C2=CC=CC=C2
INCHIKEY=DQFBYFPFKXHELB-VAWYXSNFSA-N
ADDUCT=[M+H]+
IONMODE=positive
PARENT_MASS=208.088815004
52.2720947265625 0.008882536084559984 
77.03180694580078 0.01059464913716428 
77.04097747802734 0.019198729021550374 
84.96205139160156 0.026564218657272907 
95.04993438720703 0.010631876190601238 
103.04043579101562 0.020493984626452882 
103.05731964111328 0.31644065221611567 
104.05961608886719 0.019432915593854197 
105.03662872314453 0.24448214334695378 
106.0392837524414 0.015122951405714801 
107.05162048339844 0.015860711535938588 
117.9631576538086 0.03044100845293655 
128.9537353515625 0.014064457202782661 
131.01849365234375 0.033400783460532796 
131.02833557128906 0.06239002321081034 
131.05288696289062 1.0 
132.05641174316406 0.09800992445004562 
181.10389709472656 0.020890418691357673 
191.08505249023438 0.056715291322673854 
209.05325317382812 0.03425672328890974 
209.09564208984375 0.7915557175331986 
210.0991973876953 0.14886385358563006 
END IONS

BEGIN IONS
CHARGE=1+
PRECURSOR_MZ=447.092187396
COMPOUND_NAME=challenge_223
FORMULA=C21H18O11
SMILES=O[C@H]([C@H]([C@@H]([C@@H](C(O)=O)O1)O)O)[C@@H]1OC2=C(O)C(O)=C3C(C=C(C4=CC=CC=C4)OC3=C2)=O
INCHIKEY=IKIIZLYTISPENI-ZFORQUDYSA-N
ADDUCT=[M+H]+
IONMODE=positive
PARENT_MASS=446.084911396
74.75823211669922 0.0026040248784859085 
74.76860046386719 0.0025701194674868496 
79.01773834228516 0.0011086264000829125 
81.03327178955078 0.0025428917496952905 
82.25984954833984 0.004072867503031652 
82.27215576171875 0.003305724104798148 
85.02806091308594 0.004224873816294016 
95.52299499511719 0.002207410738418865 
95.76297760009766 0.000960372781865944 
103.03816986083984 0.001700578558366587 
103.26319885253906 0.002099819466148496 
103.27842712402344 0.0015481066656073707 
107.01253509521484 0.0010921999621025967 
107.76824188232422 0.0012680539262243293 
107.78240966796875 0.0011595499572803118 
109.02806091308594 0.0028615194046895166 
112.2667465209961 0.00898665529760166 
112.28684997558594 0.006404951729653678 
133.0276641845703 0.0010469397672811175 
135.04188537597656 0.0028038553641169034 
137.02304077148438 0.026075212763139757 
151.03878784179688 0.0032464308101794247 
161.02357482910156 0.0016571796761586516 
163.03965759277344 0.0013364893595851253 
165.0182647705078 0.004908981376317074 
171.03028869628906 0.001052916714905114 
183.02926635742188 0.0014087497835119317 
189.05343627929688 0.0025458199467742353 
193.04934692382812 0.0015223903903245357 
195.0289306640625 0.002258457773806341 
199.0420379638672 0.0013029907594106621 
202.74423217773438 0.0010804412921795502 
205.04788208007812 0.0020555248872249836 
213.05392456054688 0.0014911701501221038 
217.04946899414062 0.02097848494665631 
219.0278778076172 0.0020896681148417904 
229.0487823486328 0.004782625257855364 
231.0631103515625 0.0014776682533157713 
233.04241943359375 0.003708403025605888 
235.06033325195312 0.0025569457795484394 
241.04888916015625 0.002444534744972025 
243.02658081054688 0.015723936100069173 
259.05987548828125 0.016593582299252327 
261.0376892089844 0.014717211013172114 
269.0426940917969 0.0181356766463552 
270.04962158203125 0.006682756635871117 
271.05841064453125 0.008154699285028998 
272.0655517578125 0.0074587897326091 
279.0517272949219 0.0018932577283023151 
281.0415954589844 0.0034671297497166293 
283.0577697753906 0.0048662281269253455 
284.0656433105469 0.002075748622291226 
286.0456848144531 0.0026105903354110885 
287.05340576171875 0.015590571611796193 
287.4066467285156 0.0010766177639755243 
295.0585632324219 0.003124247541640816 
296.06500244140625 0.0013829441213527873 
297.0780944824219 0.0019426510150804383 
298.89385986328125 0.0023714669144344626 
299.0539855957031 0.3437654571661774 
300.0614929199219 0.12055448976014362 
301.07269287109375 0.007310926656439648 
305.06427001953125 0.0018768220591619715 
309.078125 0.005670533067911904 
310.0687255859375 0.001457603732910604 
311.05364990234375 0.05789521514222722 
311.1383972167969 0.0019675124483856414 
312.0571594238281 0.0018593157582536411 
313.07025146484375 0.06391201578620932 
315.0546875 0.002134462455973545 
315.8489685058594 0.0010418890431791272 
321.0739440917969 0.0017865038410633865 
323.0537414550781 0.01484737731578474 
324.0617370605469 0.012963347639991093 
325.070556640625 0.022481178874807682 
327.0479736328125 0.021475509613263517 
328.0564880371094 0.004561882813049117 
328.8816223144531 0.0027454533791278035 
329.06439208984375 0.5028857900437529 
337.072021484375 0.005407442082393171 
338.0745544433594 0.0015879823522038708 
339.0867614746094 0.09584294124655386 
339.17034912109375 0.0012222646305572913 
340.0526123046875 0.0016097366318822616 
341.0643310546875 0.026463548837602387 
343.08148193359375 0.0098565025715577 
349.0680847167969 0.002482751930282723 
351.0714111328125 0.0018504258769539146 
352.05206298828125 0.0015076531632316993 
353.0643310546875 0.12837386797973827 
354.0701599121094 0.0016451278026576896 
355.0765075683594 0.0033081768514368446 
357.0624694824219 0.0032474815172653707 
359.0752258300781 0.047100857421437936 
359.16998291015625 0.0009181338269046808 
365.0617980957031 0.012353057188227467 
366.0697937011719 0.002178532379537171 
367.0799865722656 0.04935944333471318 
367.18707275390625 0.0015133636867816235 
371.0747375488281 0.014753813933647044 
377.0664978027344 0.0028006635762902314 
383.0746154785156 0.09816407823135904 
384.0792236328125 0.0022056109364062995 
385.08978271484375 0.003348217053756614 
394.89874267578125 0.0014306658369848708 
395.07470703125 0.07178406828448981 
401.0848083496094 0.008800116402844086 
413.0854187011719 0.1841989400987518 
419.0993347167969 0.007833867302138212 
420.09869384765625 0.0017642399282333573 
429.07763671875 0.0021613011854771966 
431.0962219238281 0.13711678043764913 
446.19635009765625 0.00292544564487075 
446.58819580078125 0.0011604235357708715 
447.09051513671875 0.0645945820167006 
448.095703125 0.015820432980348006 
448.808837890625 0.006602364016947863 
449.1059265136719 1.0 
449.3346862792969 0.008646025858163148 
449.3975830078125 0.008125824216461769 
END IONS

BEGIN IONS
CHARGE=1+
PRECURSOR_MZ=162.058325592
COMPOUND_NAME=challenge_224
FORMULA=C6H11NO2S
SMILES=N[C@@H](CSCC=C)C(O)=O
INCHIKEY=ZFAHNWWNDFHPOH-YFKPBYRVSA-N
ADDUCT=[M+H]+
IONMODE=positive
PARENT_MASS=161.051049592
53.003971099853516 0.011378279544112066 
56.57512283325195 0.00716600730933734 
58.996726989746094 0.011526546624936457 
72.08248138427734 0.007366527224394579 
72.99834442138672 0.032404489460015284 
73.00237274169922 0.06417857594725852 
73.0126724243164 1.0 
73.02323150634766 0.019462328407536592 
73.02532958984375 0.010715295901545454 
74.00777435302734 0.028982676891091942 
74.01586151123047 0.02721477666028061 
75.00849914550781 0.014735535548912462 
77.12751007080078 0.007061680032087491 
79.0235366821289 0.04247174095976486 
80.02603149414062 0.010134551194371887 
81.0074462890625 0.014106854490040226 
81.01912689208984 0.2020016126098001 
82.02197265625 0.014279367569099281 
83.01769256591797 0.012885306309766321 
84.96205139160156 0.13658280010151805 
86.9914321899414 0.010559927095662799 
116.05435180664062 0.013989361941061134 
120.01380920410156 0.026204820348230882 
139.98544311523438 0.00920084455197672 
145.007568359375 0.02421081831712114 
145.03146362304688 0.5097943959937802 
146.03880310058594 0.03514771354165497 
161.1327667236328 0.007701518437954576 
162.0604705810547 0.013992203332951517 
162.97630310058594 0.011215437023619419 
163.0416717529297 0.015767229854168865 
163.1272735595703 0.008721695104449052 
180.9875946044922 0.008438691185410447 
END IONS

BEGIN IONS
CHARGE=1+
PRECURSOR_MZ=277.08592024399996
COMPOUND_NAME=challenge_227
FORMULA=C18H12O3
SMILES=O=C(C1=C2C=CC3=C1C=CC=C3C)C(C4=C2OC=C4C)=O
INCHIKEY=AIGAZQPHXLWMOJ-UHFFFAOYSA-N
ADDUCT=[M+H]+
IONMODE=positive
PARENT_MASS=276.078644244
64.62068939208984 0.009157893709313929 
69.26882934570312 0.008580649958799964 
169.06915283203125 0.016657803724580922 
171.64796447753906 0.009273984097980827 
176.72291564941406 0.00889846270975981 
178.07736206054688 0.1566156099868294 
179.08663940429688 0.031404862580940475 
193.064208984375 0.010807784363965015 
193.10061645507812 0.14554714990717457 
194.11080932617188 0.022615714153287156 
202.0838623046875 0.013581602592449803 
203.08462524414062 0.04173070334901484 
206.07833862304688 0.017404514861619067 
207.0834503173828 0.011672457392256173 
208.40823364257812 0.008049344886072243 
221.0961456298828 0.04647079223103972 
222.1031494140625 0.013704305578168315 
231.07968139648438 0.038335690014051356 
232.09097290039062 0.010120269800718099 
234.06710815429688 0.04581644897810045 
248.08546447753906 0.014203442880198633 
249.03677368164062 0.018451429456809203 
249.09043884277344 0.4988482390200313 
250.0941619873047 0.10779016637245128 
262.0697937011719 0.0253449058677938 
276.9874267578125 0.028641208512296307 
277.0852966308594 1.0 
278.0884704589844 0.18639687219826456 
279.0957336425781 0.015406509056290263 
END IONS

BEGIN IONS
CHARGE=1+
PRECURSOR_MZ=433.2220793639999
COMPOUND_NAME=challenge_229
FORMULA=C24H32O7
SMILES=O[C@]1(C)[C@@H](C)CC2=CC(OC)=C(OC)C(OC)=C2C3=C(OC)C(OC)=C(OC)C=C3C1
INCHIKEY=YEFOAORQXAOVJQ-RZFZLAGVSA-N
ADDUCT=[M+H]+
IONMODE=positive
PARENT_MASS=432.2148033639999
56.80592346191406 0.03100072807000874 
98.39962768554688 0.029993105191223234 
116.45272064208984 0.032841402839973735 
175.12908935546875 0.03367007939440076 
256.11602783203125 0.04817354347339255 
272.1098327636719 0.05683230579583131 
284.1092529296875 0.0340939281341361 
285.1177978515625 0.03875136203097787 
299.133056640625 0.07366555081897454 
300.10357666015625 0.04947105060621033 
302.12225341796875 0.04535734618283861 
307.14801025390625 0.03136912967792491 
315.12579345703125 0.21584538189872127 
316.13397216796875 0.05584247245988966 
322.1637268066406 0.05853728981615831 
324.1450500488281 0.03617749085970902 
326.1527404785156 0.060357377505941376 
328.1383972167969 0.08046150551361132 
329.1473693847656 0.11466695088015823 
330.1458435058594 0.3298785231853374 
331.13238525390625 0.11345663317586546 
332.1336975097656 0.041766845285204655 
338.16339111328125 0.10526625894932486 
339.1591491699219 0.0371941671631786 
342.1573791503906 0.10932901675359817 
343.158203125 0.06749074256759828 
344.1407165527344 0.04492378902788739 
345.1338806152344 0.05327173650996638 
346.137939453125 0.19961239930961552 
347.1541748046875 0.053967679960890136 
348.16778564453125 0.08994749176703101 
353.1825256347656 0.11958251217898128 
354.17303466796875 0.03944685135513291 
357.17047119140625 0.15404939483299687 
358.1871337890625 0.10784109950658079 
359.1622314453125 0.08740769465876123 
361.1733703613281 0.11347762780571162 
369.17071533203125 0.19471546885258606 
373.1783447265625 0.05380175484830396 
384.1952209472656 0.32892767488584884 
385.20550537109375 0.12299402890835937 
400.20074462890625 0.1220247011426668 
415.2098693847656 1.0 
416.21295166015625 0.2656163948799466 
417.2232360839844 0.05176153794059146 
432.21392822265625 0.4811642655237763 
433.2135009765625 0.15482155007113255 
END IONS

BEGIN IONS
CHARGE=1+
PRECURSOR_MZ=623.3115630640001
COMPOUND_NAME=challenge_230
FORMULA=C38H42N2O6
SMILES=COC1=C(OC2=CC=C(C[C@](N(CC3)C)([H])C4=C3C=C5OC)C=C2)C([C@@](N6C)([H])CC7=CC=C(OC4=C5OC)C=C7)=C(CC6)C=C1OC
INCHIKEY=ANOXEUSGZWSCQL-LOYHVIPDSA-N
ADDUCT=[M+H]+
IONMODE=positive
PARENT_MASS=622.304287064
58.066650390625 0.013810541088414159 
69.25424194335938 0.0429641808306045 
69.3662338256836 0.01818724173553719 
70.44176483154297 0.010403564212017257 
70.85259246826172 0.009705821345963928 
159.103271484375 0.05448604397317948 
164.0721893310547 0.013739963420655959 
190.08676147460938 0.08573884427465045 
191.09490966796875 0.01606225635428037 
204.10061645507812 0.06521266697853319 
205.1129150390625 0.012535752572898799 
220.09957885742188 0.013724855761733977 
253.0922393798828 0.01972794518945891 
255.10409545898438 0.018052500779666303 
258.04998779296875 0.011017810502105098 
266.1060791015625 0.014727894836010188 
267.1056213378906 0.013236803335672332 
268.11578369140625 0.020015184001247466 
269.1249084472656 0.02132006113883258 
280.1178894042969 0.015028248284734133 
281.12408447265625 0.037575468449503616 
296.1390686035156 0.017081213615572535 
298.1496276855469 0.028242547689588855 
311.1511535644531 0.06592871900826447 
312.1553039550781 0.07718190264566765 
313.1798095703125 0.012839173521232912 
324.161376953125 0.015640538099693332 
357.1573181152344 0.02419821229013982 
400.18994140625 0.05939234107801861 
401.2003479003906 0.012991328648838297 
549.2430419921875 0.028318022636311658 
550.2568359375 0.013752507926607411 
563.2451782226562 0.012073745062113415 
565.25927734375 0.011969476876396903 
580.275390625 0.026504258927179166 
581.2608032226562 0.013069603897032071 
592.2618408203125 0.08736851577524819 
593.285400390625 0.037119402645667654 
623.0944213867188 0.020704347289360155 
623.3095703125 1.0 
624.31396484375 0.3715695982119653 
625.3274536132812 0.04093085334476844 
END IONS

BEGIN IONS
CHARGE=1+
PRECURSOR_MZ=529.149308348
COMPOUND_NAME=challenge_232
FORMULA=C30H24O9
SMILES=CC(C1)=C(C(C)=O)C(C2=C(C3=C(O)C=C4OC)C4=C5C(OC)=CC(O)=C6C5=C2C1=C(OC)C6=O)=C(OC)C3=O
INCHIKEY=APTUSGMALOMQQL-UHFFFAOYSA-N
ADDUCT=[M+H]+
IONMODE=positive
PARENT_MASS=528.1420323479999
55.05564498901367 0.022392661859150884 
57.03492736816406 0.02363393072104555 
57.071834564208984 0.06431058828975034 
60.254493713378906 0.01531155483140715 
69.0355224609375 0.03745881352809457 
69.0713119506836 0.03141249257766614 
71.05060577392578 0.02486737289381097 
79.05587005615234 0.036749153467576505 
81.07168579101562 0.0408703787780418 
83.0870132446289 0.020262064730024017 
85.03070831298828 0.02015352327715112 
85.06747436523438 0.09450554301938496 
91.05708312988281 0.12000444165791795 
105.07342529296875 0.019716647953951 
109.06890106201172 0.023990054546104683 
111.08403778076172 0.07280302894857935 
114.03438568115234 0.01785720322634213 
125.0986557006836 0.030531147249255416 
127.07826232910156 0.06412543240445133 
133.0806121826172 0.06740495719478129 
133.1050262451172 1.0 
134.10879516601562 0.044161589151415305 
147.08372497558594 0.03852025556616328 
149.10073852539062 0.22893735209309435 
153.09063720703125 0.08180214948061466 
169.0889434814453 0.01953936728988261 
171.10107421875 0.14083542335446916 
189.0766143798828 0.03699853271122345 
189.1116485595703 0.238195383100003 
283.269287109375 0.04671960968107184 
337.2003173828125 0.16991118047797785 
351.1947937011719 0.04204236984078668 
443.68023681640625 0.018405744996259858 
485.2884216308594 0.4356180056008981 
486.2867126464844 0.07507587011571037 
529.1666259765625 0.046819031833725176 
530.34375 0.23361266485384197 
531.3711547851562 0.04572634932688769 
END IONS

BEGIN IONS
CHARGE=1+
PRECURSOR_MZ=345.096878852
COMPOUND_NAME=challenge_233
FORMULA=C18H16O7
SMILES=O=C(C1(C)C(OC2=C(C(C)=O)C(O)=C(C)C(O)=C12)=C3)C(C(C)=O)C3=O
INCHIKEY=CUCUKLJLRRAKFN-UHFFFAOYSA-N
ADDUCT=[M+H]+
IONMODE=positive
PARENT_MASS=344.089602852
53.82672119140625 0.01240155572514816 
57.93646240234375 0.017481249509500158 
79.34105682373047 0.012700819990981608 
101.87677764892578 0.012830304506270233 
113.47261810302734 0.015238881998894022 
191.07395935058594 0.032744606883374223 
201.060791015625 0.015897330189522333 
209.88348388671875 0.016835985274117397 
215.06991577148438 0.08563182361829881 
219.0709991455078 0.0533204266191825 
221.8787841796875 0.01566591810626007 
233.08016967773438 0.24133176207049226 
234.0906524658203 0.027032312726026863 
243.07086181640625 0.03163323489691451 
257.0865173339844 0.03521890922815626 
261.074951171875 0.16134080711436846 
262.083984375 0.019325725605203087 
267.072265625 0.01482437596512223 
269.0554504394531 0.015580564400304121 
275.0984191894531 0.024566998152885343 
281.0842590332031 0.02820747981635686 
285.0856018066406 0.050737735859541715 
291.07318115234375 0.013857929138310295 
294.05865478515625 0.015747174862682727 
297.89642333984375 0.03474695552703159 
299.09722900390625 0.022920922863257944 
299.89300537109375 0.019932802443335645 
303.0851745605469 0.1251387150559975 
309.07672119140625 0.0636642637466975 
312.0718994140625 0.029661971326229913 
315.0605163574219 0.04098621627402485 
327.085693359375 0.3144777350497917 
328.0876770019531 0.07937456960765457 
330.072998046875 0.13081399667662258 
331.0850524902344 0.025930189000645986 
343.2755126953125 0.11170816314217487 
344.9605407714844 0.023442187037852752 
345.0958251953125 1.0 
346.0990905761719 0.18932820347997445 
346.3421630859375 0.020396416938360105 
362.8407897949219 0.015363511132815335 
END IONS

BEGIN IONS
CHARGE=1+
PRECURSOR_MZ=312.155396772
COMPOUND_NAME=challenge_235
FORMULA=C14H21N3O5
SMILES=O=C(OCCCCNC(N)=N)C1=CC(OC)=C(O)C(OC)=C1
INCHIKEY=WNGSUWLDMZFYNZ-UHFFFAOYSA-N
ADDUCT=[M+H]+
IONMODE=positive
PARENT_MASS=311.148120772
72.08293151855469 0.29028887716651575 
81.01207733154297 0.01399722050959844 
97.07880401611328 0.16220117748251583 
114.1056900024414 0.2831881779680237 
115.1080093383789 0.017851796053526818 
132.11328125 0.08698647885856939 
153.05874633789062 0.039157241752666515 
181.0161590576172 0.04505067593107469 
181.04905700683594 0.8069832491394415 
182.05218505859375 0.07195974862789435 
216.71348571777344 0.017176840141922847 
312.03704833984375 0.02599963271919671 
312.1543884277344 1.0 
313.1572570800781 0.16611080708539058 
END IONS

BEGIN IONS
CHARGE=1+
PRECURSOR_MZ=255.0651848
COMPOUND_NAME=challenge_236
FORMULA=C15H10O4
SMILES=O=C1C2=C(C=CC=C2O)C(C3=CC(C)=CC(O)=C13)=O
INCHIKEY=LQGUBLBATBMXHT-UHFFFAOYSA-N
ADDUCT=[M+H]+
IONMODE=positive
PARENT_MASS=254.0579088
55.9306755065918 0.007422448140213071 
55.93619155883789 0.022745933565533626 
57.07141876220703 0.01607224899814139 
67.28097534179688 0.006067710071062187 
68.99871063232422 0.011248139926759859 
71.08723449707031 0.009611433112267743 
72.93871307373047 0.008653556110668901 
81.07164764404297 0.011852121723901167 
83.0875473022461 0.009615698822859165 
84.96195220947266 0.016278627055518087 
88.07752227783203 0.010447495838387642 
90.95020294189453 0.006925106004770049 
90.97935485839844 0.057585516615865404 
95.08807373046875 0.012317263123063507 
98.98638153076172 0.010200107380058313 
105.03604888916016 0.009833709319933027 
113.96605682373047 0.015885716218021487 
115.96647644042969 0.01095219746239952 
129.07188415527344 0.01087480336356783 
131.9769744873047 0.009353351415312298 
152.06570434570312 0.007465049907738183 
153.02244567871094 0.020224217995536056 
153.0693817138672 0.05642058870414018 
154.07630920410156 0.007966614310551278 
157.06773376464844 0.011756498021901872 
159.97117614746094 0.012734144275120145 
165.07000732421875 0.051166499315103135 
181.06454467773438 0.07422309121904758 
182.07315063476562 0.010869298486805574 
183.91790771484375 0.01929354834566889 
185.0653076171875 0.027039669172173778 
191.8839874267578 0.01661819375464884 
192.9666290283203 0.0069193813259950205 
195.95423889160156 0.009160190440849564 
199.07525634765625 0.07336331263152125 
200.0816192626953 0.011460580382239445 
201.92636108398438 0.008806944298806216 
203.88893127441406 0.012840236759101925 
203.94180297851562 0.008239405675382717 
205.88671875 0.021158663068210855 
207.88043212890625 0.014620412743371409 
208.8846893310547 0.009346149149830226 
209.0586395263672 0.033839040150738214 
209.89306640625 0.016792087660443676 
211.07772827148438 0.008791590223146892 
213.92214965820312 0.04787771092321132 
214.89878845214844 0.01579370968138063 
223.8981475830078 0.029095582385427067 
226.06906127929688 0.024186506647987903 
227.07484436035156 0.009594998127886781 
230.89898681640625 0.02831907204087615 
231.90061950683594 0.014313894957700038 
232.92083740234375 0.012164768106869861 
233.9046630859375 0.03535204135807912 
236.94300842285156 0.015635035384131416 
248.91009521484375 0.03148242537166214 
249.9145965576172 0.010617457098288062 
254.06268310546875 0.018796123461232824 
254.14700317382812 0.01049401111610253 
254.94857788085938 0.015400371652207439 
254.97918701171875 0.0317895606716941 
255.0078582763672 0.042294772898367555 
255.06451416015625 1.0 
255.1470947265625 0.018632135644267772 
255.16197204589844 0.01593525079962007 
256.0673828125 0.15929535326670516 
256.2630920410156 0.088281648643274 
256.916015625 0.012450152834080193 
257.0780944824219 0.011696510173756997 
257.1405334472656 0.022302043142147412 
END IONS

BEGIN IONS
CHARGE=1+
PRECURSOR_MZ=271.096484928
COMPOUND_NAME=challenge_242
FORMULA=C16H14O4
SMILES=O=C1C=CC2=C(OC/C=C(C)/C)C3=C(OC=C3)C=C2O1
INCHIKEY=IGWDEVSBEKYORK-UHFFFAOYSA-N
ADDUCT=[M+H]+
IONMODE=positive
PARENT_MASS=270.089208928
50.757179260253906 0.010223790514821595 
51.146209716796875 0.006762041261074041 
69.07231140136719 0.04915391559067546 
94.95135498046875 0.008337575305213866 
113.0923843383789 0.008690965306294695 
131.03199768066406 0.014076967989313509 
131.05343627929688 0.04199805620023426 
147.04876708984375 0.09385583483586897 
148.05081176757812 0.010780998823107723 
151.49473571777344 0.008073564826207403 
159.04891967773438 0.048275981684319014 
175.0446319580078 0.016038928556611376 
202.92367553710938 0.009080950261499961 
202.9724884033203 0.03318116858396506 
202.99392700195312 0.056304794845569724 
203.03334045410156 1.0 
204.0373077392578 0.11015906252459463 
205.04296875 0.00981339465492012 
END IONS

BEGIN IONS
CHARGE=1+
PRECURSOR_MZ=218.11755472
COMPOUND_NAME=challenge_244
FORMULA=C13H15NO2
SMILES=O=C(O1)C=C2[C@@]13[C@](CCCC4)([H])N4[C@](C3)([H])C=C2
INCHIKEY=SWZMSZQQJRKFBP-WZRBSPASSA-N
ADDUCT=[M+H]+
IONMODE=positive
PARENT_MASS=217.11027872
54.52722930908203 0.007477426476921423 
54.532020568847656 0.004035442669385697 
56.05133819580078 0.01826565588170525 
72.98800659179688 0.004132642552222789 
82.06548309326172 0.03329564007105935 
82.9546890258789 0.0038980793500153076 
83.07412719726562 0.005674904626585172 
84.06536865234375 0.013288973091267284 
84.07030487060547 0.026055159881237133 
84.08302307128906 0.4386555204521286 
85.08529663085938 0.019551857534416954 
134.95944213867188 0.011568958764796406 
172.1148681640625 0.006993410148109843 
174.1320343017578 0.004633794286388642 
178.94955444335938 0.005276693191142916 
190.08860778808594 0.0064317411262241496 
200.1122283935547 0.004817843263770733 
218.02267456054688 0.014842454370555962 
218.04891967773438 0.02207823911440441 
218.070556640625 0.037218238802153664 
218.11695861816406 1.0 
218.1756134033203 0.011694623699805283 
219.12014770507812 0.1439597946990713 
END IONS

BEGIN IONS
CHARGE=1+
PRECURSOR_MZ=336.08664851599997
COMPOUND_NAME=challenge_245
FORMULA=C19H13NO5
SMILES=O=C1N2C(C3=CC(OCO4)=C4C=C3CC2)=CC5=CC=C6C(OCO6)=C15
INCHIKEY=UCAFJBSQKXVPDX-UHFFFAOYSA-N
ADDUCT=[M+H]+
IONMODE=positive
PARENT_MASS=335.079372516
67.85352325439453 0.008382091227303797 
220.84890747070312 0.011281585259094175 
232.08204650878906 0.009242827181909071 
235.07101440429688 0.009197595335922844 
243.72808837890625 0.009814538711995573 
250.09483337402344 0.03279887981128904 
261.07318115234375 0.009746532126029016 
262.0947265625 0.010324467965396905 
264.0711975097656 0.012223370541880444 
278.0896911621094 0.03679085752035772 
280.10504150390625 0.03769974053155395 
290.09014892578125 0.03141449160868751 
292.05804443359375 0.07366004500514639 
293.0770263671875 0.04038653116437159 
306.0782165527344 0.06686672435674984 
307.08563232421875 0.014934633802676463 
308.09130859375 0.3990860076351176 
309.0937194824219 0.07268873676904732 
319.9755554199219 0.01045544726971447 
320.0542907714844 0.296333174590223 
321.0550231933594 0.05925805320511047 
322.0648193359375 0.011677785091929394 
334.0703125 0.08376074833870958 
335.0775451660156 0.443188129966369 
335.99761962890625 0.030321437945745246 
336.0856018066406 1.0 
337.0882263183594 0.18655583602824458 
338.0997009277344 0.022567188395958216 
END IONS

BEGIN IONS
CHARGE=1+
PRECURSOR_MZ=368.0684116079999
COMPOUND_NAME=challenge_246
FORMULA=C20H14ClNO4
SMILES=C[N+]1=CC2=C3C(OCO3)=CC=C2C(C=CC4=C5)=C1C4=CC6=C5OCO6.[Cl-]
INCHIKEY=GIZKAXHWLRYMLE-UHFFFAOYSA-M
ADDUCT=[M+H]+
IONMODE=positive
PARENT_MASS=367.0611356079999
50.716976165771484 0.011856218993901714 
59.94148254394531 0.013501071543370335 
78.88008117675781 0.013306249394824481 
81.51376342773438 0.012598052101919666 
116.05188751220703 0.02304112002369092 
140.31031799316406 0.011729591589037662 
144.0470733642578 0.02862150487797542 
147.04811096191406 0.03700880859671884 
149.02767944335938 0.08602448451830653 
150.03099060058594 0.017810675074089632 
174.05474853515625 0.16111454506512882 
175.0636444091797 0.014251398767114062 
206.39341735839844 0.014186609449949874 
236.07672119140625 0.021651781704014113 
248.07052612304688 0.09446538348933825 
249.07186889648438 0.01322104749481391 
264.0743408203125 0.04006152166375274 
266.0877380371094 0.016831820495470443 
276.0643310546875 0.3621281480313653 
277.06781005859375 0.06326535567902089 
278.08135986328125 0.013850123030206257 
280.0706787109375 0.04770458986645328 
292.07037353515625 0.04301984164873934 
293.0711975097656 0.017533325741513697 
294.08148193359375 0.021578096643174248 
306.0878601074219 0.039369834223458626 
307.0645751953125 0.01566770293406586 
320.0658264160156 0.030405227125105586 
322.0702819824219 0.10172539535498393 
350.0641174316406 0.4613592025134121 
351.0709228515625 0.08922357940787642 
367.9769287109375 0.03437668620656034 
368.07568359375 1.0 
369.0769958496094 0.19217449093426045 
370.0897216796875 0.017704018671603487 
END IONS

BEGIN IONS
CHARGE=1+
PRECURSOR_MZ=481.35236525599987
COMPOUND_NAME=challenge_248
FORMULA=C28H48O6
SMILES=O[C@H]1[C@@H](O)C[C@@](C(OC[C@]2([H])[C@]3([H])CC[C@@]4(C)[C@]2(CC[C@]4([H])[C@H](C)[C@@H](O)[C@H](O)[C@H](C(C)C)C)[H])=O)([H])[C@]3(C)C1
INCHIKEY=IXVMHGVQKLDRKH-KNBKMWSGSA-N
ADDUCT=[M+H]+
IONMODE=positive
PARENT_MASS=480.3450892559999
55.056060791015625 0.21435625308409514 
61.030029296875 0.1033151682657003 
65.08148193359375 0.06300036873290837 
67.0553970336914 0.13407894524299563 
69.072021484375 0.20764192346151433 
71.087646484375 0.8926124118020435 
79.05623626708984 0.16160813030195456 
81.07212829589844 0.47186743212645854 
83.0872573852539 0.13497413770579275 
85.10266876220703 0.12837394147006184 
91.05585479736328 0.0960246725378583 
93.07017517089844 0.40751853360203777 
95.08806610107422 1.0 
96.09062957763672 0.07747792273588429 
105.0727767944336 0.20233971768167902 
107.0861587524414 0.416333397673324 
109.06815338134766 0.1368048405806142 
109.08921813964844 0.08163726865052688 
109.10419464111328 0.22799242926986715 
113.09873962402344 0.3145817618979171 
119.08868408203125 0.25214367176987257 
121.1045150756836 0.29294199359036727 
123.11966705322266 0.11547935315307764 
131.0885772705078 0.07609621182114455 
133.10513305664062 0.24011959943256744 
135.12091064453125 0.20497319717075746 
137.06405639648438 0.07349402456914228 
139.0778045654297 0.10418797324041974 
143.0885772705078 0.07497519045741416 
145.10247802734375 0.14142775451521952 
147.1207275390625 0.17908464465454896 
149.135986328125 0.13418747710539716 
155.0729217529297 0.08214893348091086 
157.10287475585938 0.0948551356451017 
159.12037658691406 0.09541578124740627 
161.13729858398438 0.19595022064795606 
163.15138244628906 0.13820366778143828 
171.1186065673828 0.09112385041272256 
173.1365203857422 0.1332967416695282 
175.15113830566406 0.09008924326419476 
177.16883850097656 0.12049369454444271 
189.1688232421875 0.08661055700889164 
197.13670349121094 0.08163773389342126 
199.154052734375 0.07602840732171724 
219.83021545410156 0.11123578896969392 
225.11502075195312 0.08350126430687034 
285.19000244140625 0.08292838281644352 
295.2104187011719 0.09276467835748863 
297.2287902832031 0.21068276962891408 
303.20440673828125 0.10718392346851158 
313.2238464355469 0.18439673219346095 
315.23126220703125 0.5597598542725265 
316.2420654296875 0.11144645095227032 
319.20172119140625 0.232446925276706 
321.2161865234375 0.2364396956254439 
325.2272644042969 0.10030423721640934 
331.23431396484375 0.12951500549768225 
333.2509765625 0.2087444374629062 
343.2348327636719 0.1114832330555002 
349.2484436035156 0.24126696284897778 
350.25006103515625 0.0951647920107448 
361.249267578125 0.1950460117778658 
363.26611328125 0.12905482444599062 
427.329345703125 0.15833068020818764 
445.3313293457031 0.48828265299810336 
446.3431091308594 0.16394078373552526 
463.3568420410156 0.13987768615428958 
481.3576965332031 0.4772079367013594 
482.3699645996094 0.11501498491533658 
END IONS

BEGIN IONS
CHARGE=1+
PRECURSOR_MZ=449.10783745999987
COMPOUND_NAME=challenge_249
FORMULA=C21H20O11
SMILES=O[C@@H]1[C@@H](O)[C@H](C2=C(O)C=C(O)C3=C2OC(C4=CC=C(O)C(O)=C4)=CC3=O)O[C@H](CO)[C@H]1O
INCHIKEY=PLAPMLGJVGLZOV-VPRICQMDSA-N
ADDUCT=[M+H]+
IONMODE=positive
PARENT_MASS=448.1005614599999
75.57062530517578 0.0135240049473792 
79.01978302001953 0.015882139427599973 
97.59783172607422 0.01406752859623643 
114.8716812133789 0.013549501071072624 
137.026611328125 0.04252139404325107 
165.02267456054688 0.013734893233285705 
217.05470275878906 0.018631948190881348 
229.0556640625 0.01745938298389183 
271.0665283203125 0.015842419029800648 
272.0746765136719 0.040997353463888185 
287.05963134765625 0.018686475691484045 
299.05450439453125 0.371083666776426 
300.0601501464844 0.2283797005431129 
301.0765686035156 0.03727350109244875 
311.06463623046875 0.056429397926968855 
312.0633544921875 0.02373102746164792 
313.0704040527344 0.09023079419235722 
325.0802001953125 0.031948739831333166 
327.06561279296875 0.02319479443515083 
329.0644836425781 0.46779230047804127 
330.0687561035156 0.07612927204056393 
339.08551025390625 0.08965946511660954 
341.07635498046875 0.021616802484702286 
343.0880126953125 0.021154329348798625 
353.06524658203125 0.09677940001558191 
359.08551025390625 0.045410540017336104 
367.0914611816406 0.04161911396991809 
383.0889892578125 0.05896612872936867 
395.0881652832031 0.05369308131307489 
413.08648681640625 0.14392594268110787 
414.10247802734375 0.03392333283353619 
431.0975646972656 0.09845011436534583 
448.9742126464844 0.03609841890766885 
449.1064147949219 1.0 
450.10760498046875 0.2107218399835753 
451.12371826171875 0.027578217486970976 
END IONS

